

units				lj
dimension			3
atom_style			full

# change neighbor list parameters to avoid dangerous builds
neighbor			2.0 bin
neigh_modify			delay 3
comm_modify 			vel yes

read_data			data_lmp.out
  orthogonal box = (-22.9938 -22.9938 -31.5415) to (22.9938 22.9938 31.5415)
  2 by 3 by 4 MPI processor grid
  reading atoms ...
  400312 atoms
  scanning bonds ...
  2 = max bonds/atom
  scanning angles ...
  3 = max angles/atom
  scanning impropers ...
  1 = max impropers/atom
  reading bonds ...
  348 bonds
  reading angles ...
  492 angles
  reading impropers ...
  108 impropers
  3 = max # of 1-2 neighbors
  6 = max # of 1-3 neighbors
  15 = max # of 1-4 neighbors
  15 = max # of special neighbors

variable			rc equal 1.0

pair_style			dpd $T ${rc} 34387
pair_style			dpd 1.0 ${rc} 34387
pair_style			dpd 1.0 1 34387
pair_coeff	1	1	25	4.5	1
pair_coeff	1	2	165.362815626677	4.5	1
pair_coeff	1	3	116.862097154698	4.5	1
pair_coeff	1	4	146.155374914401	4.5	1
pair_coeff	1	5	7.1909203509054	4.5	1
pair_coeff	2	2	25	4.5	1
pair_coeff	2	3	35.9792833065638	4.5	1
pair_coeff	2	4	25.5695494065343	4.5	1
pair_coeff	2	5	129.458804641795	4.5	1
pair_coeff	3	3	25	4.5	1
pair_coeff	3	4	33.9335949525505	4.5	1
pair_coeff	3	5	76.0819248063004	4.5	1
pair_coeff	4	4	25	4.5	1
pair_coeff	4	5	126.398804395962	4.5	1
pair_coeff	5	5	25	4.5	1

# Parâmetros de lig, ângulo e impróprio tirados do Chen2018 e com o coarse-graining do Striolo
variable			k_lig_aro equal 1000
variable			k_lig_ali equal 100
variable			r0_aro equal 0.8*${rc}
variable			r0_aro equal 0.8*1
variable			r0_ali equal 0.9*${rc}
variable			r0_ali equal 0.9*1
bond_style 			harmonic
bond_coeff 			1 ${k_lig_aro} ${r0_aro} 	# B_asp-B_asp # spring const = 150 Kcal/mol/Ang² e equi.dist = 3 Angs
bond_coeff 			1 1000 ${r0_aro} 	
bond_coeff 			1 1000 0.8 	
bond_coeff 			2 ${k_lig_aro} ${r0_aro}   	# B_asp-Z_asp # spring const = 150 Kcal/mol/Ang² e equi.dist = 3 Angs
bond_coeff 			2 1000 ${r0_aro}   	
bond_coeff 			2 1000 0.8   	
bond_coeff 			3 ${k_lig_ali} ${r0_ali}	# B_asp-A_asp # spring const = 1.50 Kcal/mol/Ang² e equi.dist = 4.25 Angs
bond_coeff 			3 100 ${r0_ali}	
bond_coeff 			3 100 0.9	
bond_coeff			4 ${k_lig_ali} ${r0_ali}	# Z_asp-A_asp # spring const = 1.50 Kcal/mol/Ang² e equi.dist = 4.25 Angs
bond_coeff			4 100 ${r0_ali}	
bond_coeff			4 100 0.9	
bond_coeff			5 ${k_lig_ali} ${r0_ali}	# A_asp-A_asp # spring const = 1.50 Kcal/mol/Ang² e equi.dist = 4.25 Angs
bond_coeff			5 100 ${r0_ali}	
bond_coeff			5 100 0.9	

variable			k_ang equal 125
angle_style 			cosine/delta
angle_coeff 			1 ${k_ang} 120.0 		# K and theta0 , 300 Kcal/mol e 120 graus
angle_coeff 			1 125 120.0 		

variable			k_imp equal 5
improper_style 			cvff
improper_coeff	 		* ${k_imp} -1 2		# K d n, K = 12.5 Kcal/mol
improper_coeff	 		* 5 -1 2		

variable                        dt equal 0.002
mass				* 1.0
velocity			all create $T 12345 dist gaussian
velocity			all create 1.0 12345 dist gaussian
fix				1 all nve

variable                        total_timesteps equal 3000000
variable			equi_timesteps	equal round(${total_timesteps}*50/100) #10% of total time
variable			equi_timesteps	equal round(3000000*50/100) 
variable			thermo_equi	equal round(${equi_timesteps}/1000)
variable			thermo_equi	equal round(1500000/1000)
variable			thermo_prod	equal round(${total_timesteps}/1000)
variable			thermo_prod	equal round(3000000/1000)
variable                        dump equal round(${total_timesteps}/1)
variable                        dump equal round(3000000/1)

# Equilibration
timestep                        ${dt}
timestep                        0.002
thermo                          ${thermo_equi}
thermo                          1500
thermo_style                    custom step temp press pe ke etotal epair emol
run                             ${equi_timesteps}
run                             1500000
Neighbor list info ...
  update every 1 steps, delay 3 steps, check yes
  max neighbors/atom: 2000, page size: 100000
  master list distance cutoff = 3
  ghost atom cutoff = 3
  binsize = 1.5, bins = 31 31 43
  1 neighbor lists, perpetual/occasional/extra = 1 0 0
  (1) pair dpd, perpetual
      attributes: half, newton on
      pair build: half/bin/newton
      stencil: half/bin/3d/newton
      bin: standard
Per MPI rank memory allocation (min/avg/max) = 36.17 | 36.96 | 37.47 Mbytes
Step Temp Press PotEng KinEng TotEng E_pair E_mol 
       0            1    95.635306    18.608766    1.4999963    20.108763    18.460748   0.14801851 
    1500    1.1864569    30.055454    5.4831299     1.779681    7.2628109    5.4739876 0.0091423302 
    3000    1.0564311    28.044607    5.1923743    1.5846427     6.777017    5.1832193 0.0091549848 
    4500    1.0439736     27.21671    5.0698274    1.5659565    6.6357839    5.0607316 0.0090957946 
    6000    1.0374505    26.759617    4.9924018    1.5561719    6.5485737      4.98386 0.0085418156 
    7500     1.027311    26.334582    4.9462484    1.5409627     6.487211    4.9367796  0.009468717 
    9000    1.0289224    26.098148    4.9053274    1.5433797    6.4487071    4.8961647 0.0091627689 
   10500    1.0233474    25.890329    4.8781047    1.5350173    6.4131219    4.8692214 0.0088832354 
   12000    1.0272801    25.853682     4.846765    1.5409163    6.3876813    4.8378718 0.0088931882 
   13500    1.0204728     25.52419    4.8321213    1.5307054    6.3628268    4.8228506 0.0092707396 
   15000    1.0238586    25.420088     4.810924    1.5357841    6.3467081    4.8023898 0.0085341679 
   16500     1.020684    25.398266    4.7956205    1.5310222    6.3266427    4.7863925 0.0092279886 
   18000    1.0186604    25.250314    4.7836307    1.5279867    6.3116174    4.7746889 0.0089418185 
   19500     1.020553    25.115197    4.7700051    1.5308257    6.3008309    4.7615947 0.0084104092 
   21000    1.0181655    25.143349     4.762712    1.5272444    6.2899563    4.7538698 0.0088421674 
   22500    1.0179524    25.062671    4.7513447    1.5269247    6.2782694    4.7429263 0.0084183608 
   24000    1.0167696    25.024712    4.7418643    1.5251507    6.2670149    4.7330623 0.0088019471 
   25500    1.0186566    24.975146    4.7349201    1.5279811    6.2629012    4.7260025 0.0089175337 
   27000     1.014015    24.900277    4.7289818    1.5210187    6.2500006    4.7206743 0.0083075874 
   28500    1.0149571    24.804302    4.7199983    1.5224319    6.2424302    4.7112322 0.0087661015 
   30000    1.0123873     24.82604    4.7200272    1.5185772    6.2386044    4.7111993 0.0088278271 
   31500    1.0125533    24.855972    4.7155542    1.5188261    6.2343803    4.7060274 0.0095267237 
   33000    1.0132739    24.786973      4.71356     1.519907     6.233467    4.7042088 0.0093511488 
   34500    1.0095804    24.701072    4.7067694    1.5143669    6.2211362    4.6961118  0.010657613 
   36000    1.0122268    24.684885     4.702117    1.5183365    6.2204534    4.6938441 0.0082728377 
   37500    1.0121325    24.622922    4.6989047    1.5181949    6.2170997    4.6898441 0.0090606247 
   39000     1.014925    24.675828    4.6941937    1.5223838    6.2165774    4.6854634 0.0087302862 
   40500    1.0128728    24.609306    4.6916335    1.5193054     6.210939    4.6820799 0.0095536024 
   42000    1.0131965    24.617393    4.6881685    1.5197909    6.2079594    4.6790401 0.0091283371 
   43500     1.011695    24.633723    4.6867194    1.5175388    6.2042582    4.6770593 0.0096600847 
   45000    1.0107154    24.621032    4.6835321    1.5160693    6.1996015    4.6733415  0.010190625 
   46500      1.01146    24.579267    4.6831124    1.5171862    6.2002986    4.6739714 0.0091409533 
   48000    1.0104144    24.585735    4.6798843    1.5156179    6.1955021    4.6705894 0.0092949105 
   49500    1.0129165    24.591884    4.6799628    1.5193709    6.1993338    4.6704579 0.0095049324 
   51000    1.0098129    24.596172    4.6744206    1.5147155    6.1891361    4.6647752 0.0096453647 
   52500    1.0121466    24.509114    4.6739655    1.5182162    6.1921817    4.6647904  0.009175099 
   54000      1.01128    24.465363    4.6701177    1.5169163    6.1870339    4.6610926 0.0090250793 
   55500    1.0097814    24.461744    4.6672062    1.5146683    6.1818746    4.6584857 0.0087205481 
   57000     1.012038    24.454277    4.6645893    1.5180533    6.1826426    4.6554704 0.0091188772 
   58500    1.0102305     24.38097    4.6630933    1.5153419    6.1784352    4.6540543 0.0090390049 
   60000    1.0121597    24.469483    4.6622513    1.5182357     6.180487    4.6526073 0.0096440079 
   61500     1.012541    24.378832    4.6584028    1.5188077    6.1772105    4.6491111 0.0092916936 
   63000    1.0101526    24.444951    4.6556868     1.515225    6.1709119    4.6463475 0.0093393417 
   64500    1.0093766    24.390753    4.6562308    1.5140611    6.1702918    4.6471096 0.0091211276 
   66000    1.0100595    24.365129    4.6559976    1.5150854    6.1710831     4.646792 0.0092056743 
   67500    1.0111874    24.368135    4.6531669    1.5167774    6.1699443      4.64383 0.0093368507 
   69000    1.0093776    24.356775    4.6524155    1.5140626    6.1664781    4.6430792 0.0093362601 
   70500    1.0077972    24.317077    4.6515804     1.511692    6.1632724     4.642557 0.0090234179 
   72000     1.007861    24.462843    4.6509873    1.5117877     6.162775    4.6412308 0.0097564811 
   73500    1.0091811     24.34304    4.6491911    1.5137679     6.162959    4.6402321 0.0089590118 
   75000    1.0074976    24.273656    4.6473177    1.5112426    6.1585604    4.6378743 0.0094434738 
   76500    1.0082303    24.293175    4.6469781    1.5123417    6.1593198    4.6377731 0.0092049921 
   78000    1.0072147    24.345646    4.6464049    1.5108182    6.1572231    4.6368957 0.0095091483 
   79500    1.0072302    24.304267    4.6471683    1.5108415    6.1580098     4.637375 0.0097932782 
   81000    1.0077106    24.242775     4.645307    1.5115621    6.1568691    4.6359356 0.0093714724 
   82500    1.0070012    24.244551    4.6399665     1.510498    6.1504645    4.6313429 0.0086235962 
   84000    1.0060695    24.179414    4.6426653    1.5091005    6.1517658    4.6331487 0.0095166087 
   85500    1.0098064    24.266911    4.6418565    1.5147058    6.1565623    4.6324942 0.0093623096 
   87000    1.0084274    24.176221    4.6393938    1.5126373    6.1520311    4.6301043 0.0092894943 
   88500    1.0089666    24.230887    4.6410565    1.5134461    6.1545026    4.6316249 0.0094316346 
   90000    1.0088664     24.22199    4.6342118    1.5132959    6.1475077     4.624716 0.0094957948 
   91500    1.0084782    24.275719     4.635761    1.5127135    6.1484745       4.6263 0.0094609351 
   93000    1.0066086    24.229104    4.6386719    1.5099091     6.148581    4.6288562 0.0098156801 
   94500    1.0102717    24.196874    4.6346803    1.5154037     6.150084    4.6250881 0.0095921935 
   96000     1.005736     24.21016    4.6336671    1.5086002    6.1422673    4.6242806 0.0093865836 
   97500    1.0080237    24.238464     4.631215    1.5120318    6.1432468    4.6215863 0.0096286611 
   99000    1.0067224    24.142482     4.631213    1.5100798    6.1412927    4.6214306 0.0097823958 
  100500    1.0094702    24.229635    4.6313727    1.5142015    6.1455742    4.6214919 0.0098807693 
  102000    1.0095075    24.220344    4.6287518    1.5142575    6.1430093    4.6193995 0.0093522392 
  103500    1.0073419    24.148355    4.6298764    1.5110091    6.1408855    4.6210933 0.0087831384 
  105000    1.0082178    24.082744    4.6260159    1.5123229    6.1383388    4.6167088 0.0093070829 
  106500    1.0078839    24.158794     4.624424    1.5118221    6.1362461    4.6148866 0.0095374414 
  108000    1.0086851    24.116779    4.6281595    1.5130239    6.1411834    4.6188444 0.0093150924 
  109500    1.0075587    24.169438    4.6250924    1.5113342    6.1364266     4.615638 0.0094544263 
  111000    1.0079861    24.159894     4.624873    1.5119754    6.1368484    4.6153219 0.0095511409 
  112500    1.0081836    24.120873    4.6231397    1.5122717    6.1354114    4.6140271 0.0091126328 
  114000    1.0086403    24.131624    4.6208971    1.5129567    6.1338538    4.6123831 0.0085140434 
  115500    1.0074631    24.177789    4.6209416    1.5111909    6.1321324    4.6120301 0.0089114877 
  117000    1.0068121     24.06488    4.6191059    1.5102144    6.1293202    4.6100836  0.009022218 
  118500    1.0072808    24.155969    4.6203167    1.5109174    6.1312341    4.6110421  0.009274622 
  120000    1.0084141     24.08381    4.6220287    1.5126174    6.1346461    4.6127445 0.0092841948 
  121500    1.0053522    24.164571    4.6196975    1.5080246     6.127722    4.6102624 0.0094350623 
  123000     1.008426    24.102466    4.6200656    1.5126352    6.1327008    4.6109818 0.0090838521 
  124500    1.0062077    24.095214    4.6175212    1.5093078     6.126829    4.6082844 0.0092368063 
  126000    1.0051792    24.086347    4.6189674    1.5077651    6.1267324    4.6096478 0.0093196253 
  127500    1.0061864     24.09372    4.6187158    1.5092759    6.1279917    4.6100811 0.0086347023 
  129000    1.0048872    24.079091    4.6205882    1.5073271    6.1279152    4.6118819 0.0087062359 
  130500    1.0043067    24.110891    4.6198184    1.5064563    6.1262748    4.6101495 0.0096689086 
  132000    1.0061019    24.079426    4.6180186    1.5091491    6.1271677    4.6092873 0.0087312957 
  133500    1.0053243    24.170236    4.6207308    1.5079828    6.1287135    4.6117289  0.009001895 
  135000    1.0044347    24.023744    4.6187748    1.5066482     6.125423    4.6090638 0.0097109828 
  136500    1.0050068    24.093048    4.6155337    1.5075064    6.1230401    4.6067004 0.0088332869 
  138000    1.0042593    24.092925    4.6188946    1.5063852    6.1252798    4.6098996 0.0089950218 
  139500    1.0071149    24.136631    4.6161005    1.5106687    6.1267691    4.6069414 0.0091590197 
  141000     1.005784    24.062943    4.6186125    1.5086722    6.1272847    4.6089645  0.009647942 
  142500    1.0073001    24.074305    4.6180011    1.5109464    6.1289475    4.6082606 0.0097404843 
  144000    1.0029415     24.14996    4.6163446    1.5044085     6.120753    4.6069245 0.0094200978 
  145500    1.0031681    24.052664    4.6167899    1.5047484    6.1215383    4.6071333 0.0096565895 
  147000    1.0030658    24.085749    4.6169953    1.5045949    6.1215902    4.6076713 0.0093240425 
  148500    1.0047808    24.036384    4.6129115    1.5071675     6.120079    4.6042701 0.0086414425 
  150000    1.0069642    24.075462     4.615247    1.5104425    6.1256895    4.6054226 0.0098243971 
  151500    1.0045799    24.140316    4.6135494    1.5068661    6.1204156    4.6041469 0.0094025195 
  153000    1.0073166    23.994391    4.6137006    1.5109711    6.1246717    4.6051145  0.008586131 
  154500    1.0064295    24.058082     4.613273    1.5096404    6.1229134    4.6039299 0.0093430847 
  156000    1.0045525    24.075905    4.6128527    1.5068249    6.1196776     4.603154 0.0096986239 
  157500    1.0046785    24.013443     4.613817     1.507014    6.1208311    4.6042077 0.0096093188 
  159000    1.0052036    24.048238    4.6134092    1.5078016    6.1212108    4.6036279 0.0097813672 
  160500    1.0049396    24.025765    4.6111227    1.5074057    6.1185284    4.6019354 0.0091872672 
  162000    1.0057788    23.988655    4.6114071    1.5086644    6.1200715    4.6017636 0.0096434963 
  163500     1.007269    24.081076    4.6101919    1.5108997    6.1210916    4.6005652 0.0096267521 
  165000    1.0063722    24.012198    4.6084232    1.5095546    6.1179777    4.5990816  0.009341598 
  166500    1.0073315    23.996928     4.607148    1.5109935    6.1181415    4.5979964 0.0091516396 
  168000    1.0060166    23.966504    4.6085453    1.5090212    6.1175665    4.5993496 0.0091957835 
  169500    1.0075332    23.969504    4.6062657    1.5112961    6.1175618    4.5967285 0.0095372035 
  171000    1.0071374     24.01349    4.6065724    1.5107023    6.1172747    4.5970186 0.0095537515 
  172500    1.0065552    23.987166    4.6041735    1.5098291    6.1140026    4.5946249 0.0095486182 
  174000    1.0048097    23.966606    4.6042592    1.5072108      6.11147    4.5948825 0.0093767451 
  175500    1.0073349    24.038023    4.6012409    1.5109986    6.1122395    4.5919894 0.0092514241 
  177000    1.0056684    24.043284    4.6024862    1.5084989    6.1109851    4.5927822 0.0097039804 
  178500    1.0067608    23.960596    4.6000455    1.5101374     6.110183    4.5910189 0.0090266565 
  180000    1.0060447    24.009169     4.601764    1.5090633    6.1108273    4.5927519 0.0090121498 
  181500    1.0053257     23.98851    4.6009911    1.5079848    6.1089759    4.5918114 0.0091796823 
  183000    1.0055582    23.983145    4.6026808    1.5083336    6.1110144    4.5935968 0.0090840418 
  184500    1.0050673    23.948408    4.6018297    1.5075971    6.1094268    4.5921952 0.0096344278 
  186000    1.0056165    24.036509    4.6013578     1.508421    6.1097788    4.5924034 0.0089544122 
  187500    1.0041778    23.991774    4.6052809    1.5062629    6.1115438    4.5960767 0.0092041793 
  189000    1.0045374    23.976481    4.6034358    1.5068023    6.1102381    4.5942121 0.0092236843 
  190500    1.0015027    23.955884     4.603222    1.5022504    6.1054724    4.5937614 0.0094605743 
  192000    1.0018342    24.048076    4.6039982    1.5027476    6.1067457    4.5945896 0.0094085479 
  193500    1.0005743    23.932048    4.6049143    1.5008576     6.105772    4.5957621 0.0091521706 
  195000    1.0008746    24.019507     4.603104    1.5013081    6.1044121    4.5936073 0.0094966824 
  196500    1.0037422     24.00093    4.6047791    1.5056095    6.1103887    4.5958425 0.0089366142 
  198000    1.0007592    24.040951    4.6029195    1.5011351    6.1040546    4.5938016 0.0091179102 
  199500    1.0025108    24.002069    4.6030736    1.5037625    6.1068361    4.5941214 0.0089522068 
  201000    1.0013021    24.080481    4.6013333    1.5019494    6.1032826    4.5926056 0.0087276282 
  202500    1.0000014    23.915286    4.6022835    1.4999984    6.1022819     4.592816 0.0094674867 
  204000    1.0025571    24.010068    4.6046265    1.5038318    6.1084583    4.5952217 0.0094047519 
  205500    1.0016379    24.096827    4.6031223    1.5024531    6.1055755    4.5938938 0.0092284851 
  207000    1.0033406    24.022528    4.6022781    1.5050071    6.1072852    4.5929329 0.0093451978 
  208500    1.0035606    23.962961    4.6026178    1.5053371    6.1079548    4.5934182 0.0091995562 
  210000     1.002248    23.967136    4.6011569    1.5033683    6.1045252    4.5918739 0.0092830048 
  211500    1.0008199    23.926606    4.6033038    1.5012261    6.1045298     4.593831  0.009472738 
  213000    1.0017862    23.974625    4.6034177    1.5026756    6.1060933    4.5938198 0.0095979931 
  214500    1.0014591    23.992037    4.6012948     1.502185    6.1034797    4.5916688 0.0096259485 
  216000    1.0026115    23.955368    4.5991866    1.5039135    6.1031001     4.590129 0.0090576165 
  217500    1.0016529    23.910839    4.6013333    1.5024755    6.1038089    4.5923973 0.0089360056 
  219000    1.0046013    23.873865    4.6014657    1.5068982    6.1083639    4.5921018 0.0093639338 
  220500    1.0040024    24.005001    4.5993899    1.5059998    6.1053897    4.5904192 0.0089706973 
  222000    1.0046416    23.978848    4.6009151    1.5069587    6.1078738    4.5916816 0.0092335179 
  223500    1.0037695    24.021839    4.5989516    1.5056505     6.104602    4.5893995 0.0095520233 
  225000    1.0023229    23.910744    4.5987286    1.5034806    6.1022092    4.5893232 0.0094054824 
  226500    1.0030184    23.968528    4.6003564    1.5045238    6.1048802    4.5906435 0.0097128603 
  228000    1.0052347    23.904726    4.5990083    1.5078483    6.1068566    4.5896252 0.0093831028 
  229500     1.001627    23.986309    4.5997295    1.5024368    6.1021663    4.5902505 0.0094790592 
  231000    1.0008337    23.944631    4.6019626    1.5012467    6.1032094     4.592318 0.0096445894 
  232500     1.003952    23.981484    4.6003789    1.5059243    6.1063032    4.5914086 0.0089702709 
  234000    1.0041575    23.942768    4.6025849    1.5062326    6.1088175    4.5929002 0.0096847078 
  235500    1.0029283    23.971106    4.6036071    1.5043888    6.1079958    4.5945958 0.0090112408 
  237000    1.0013389    23.996228    4.6016142    1.5020046    6.1036189    4.5923712 0.0092430706 
  238500   0.99961491    23.972205     4.601366    1.4994186    6.1007846    4.5920997 0.0092662619 
  240000    1.0009335    24.021396    4.6000702    1.5013964    6.1014667    4.5905294 0.0095407923 
  241500   0.99976653     23.97411    4.6003876     1.499646    6.1000337    4.5913426 0.0090450272 
  243000     1.001836    23.982454    4.6019364    1.5027502    6.1046867    4.5926326 0.0093038975 
  244500    1.0035579    23.931748    4.6034156    1.5053331    6.1087488    4.5943296 0.0090860118 
  246000     1.001462     23.97698    4.6015048    1.5021892     6.103694    4.5922057 0.0092991209 
  247500   0.99924968    24.027934    4.5999971    1.4988708    6.0988679    4.5904852 0.0095119173 
  249000    1.0015973    24.016094    4.6014424    1.5023922    6.1038346    4.5919883 0.0094541723 
  250500    1.0023102    23.951386    4.6027526    1.5034616    6.1062142     4.593284 0.0094686506 
  252000    1.0015698    23.965859    4.5995142    1.5023509    6.1018651    4.5900897 0.0094244796 
  253500    1.0015373    23.942152    4.6010528    1.5023022     6.103355    4.5917049 0.0093478361 
  255000   0.99905677     23.91586    4.5995278    1.4985814    6.0981092    4.5898944 0.0096334094 
  256500    1.0010683    23.939707    4.5991641    1.5015988    6.1007629    4.5902489 0.0089152243 
  258000    1.0007648    23.993126    4.5985517    1.5011435    6.0996952    4.5888841 0.0096676159 
  259500    1.0021392    23.975468    4.6011863    1.5032051    6.1043914    4.5920952 0.0090911624 
  261000    1.0027847    23.948815    4.6016981    1.5041733    6.1058714    4.5921082 0.0095899315 
  262500    1.0035457    24.018547    4.5991749    1.5053148    6.1044898    4.5902109 0.0089640369 
  264000    1.0004959    24.078938    4.5981477      1.50074    6.0988877     4.588775 0.0093727074 
  265500    1.0013077    23.986134    4.5984702    1.5019578     6.100428    4.5894913 0.0089789189 
  267000    1.0002487    24.007558    4.5992907    1.5003694      6.09966    4.5898644  0.009426247 
  268500    1.0014496    24.078749    4.6008908    1.5021706    6.1030614    4.5913162 0.0095745324 
  270000    1.0014044    23.906746    4.6012613    1.5021028    6.1033641    4.5916604 0.0096008951 
  271500   0.99949667    23.864671    4.6002723    1.4992413    6.0995135    4.5909186 0.0093536451 
  273000    1.0021726    24.034547    4.6011203    1.5032552    6.1043755     4.591497 0.0096233012 
  274500   0.99987919    23.958081    4.6003585     1.499815    6.1001736    4.5911058 0.0092527558 
  276000    1.0014871    23.953214    4.5989022    1.5022269    6.1011291    4.5898264 0.0090758042 
  277500    1.0013927    23.987544    4.6000297    1.5020852    6.1021149    4.5909365 0.0090932027 
  279000    1.0017519    23.972014    4.6014457    1.5026241    6.1040699     4.592474 0.0089717197 
  280500   0.99991837    23.981914     4.599173    1.4998738    6.0990468    4.5900681 0.0091048855 
  282000   0.99983799    24.005918    4.6001759    1.4997532    6.0999291    4.5912575 0.0089184111 
  283500   0.99750881     24.00384    4.6005006    1.4962595    6.0967601     4.590977 0.0095236748 
  285000    1.0028052    24.012088    4.6002966    1.5042041    6.1045007    4.5910965 0.0092001275 
  286500    1.0014984    23.982284    4.5982735    1.5022438    6.1005173     4.589258 0.0090154822 
  288000   0.99977215    23.984054    4.5989035    1.4996545     6.098558    4.5898251  0.009078455 
  289500    1.0016071    24.013935    4.6010539    1.5024069    6.1034608    4.5916395 0.0094143991 
  291000    1.0004396    23.991472    4.5991056    1.5006557    6.0997613    4.5899878 0.0091178143 
  292500    1.0017529    24.021448    4.5970971    1.5026256    6.0997227    4.5877927  0.009304394 
  294000    1.0009232    23.925449    4.6013468     1.501381    6.1027278    4.5915705 0.0097763289 
  295500    1.0032918    23.994998    4.5990315    1.5049339    6.1039654    4.5897889 0.0092426835 
  297000    1.0022086    24.023664    4.5969829    1.5033092    6.1002921     4.588291 0.0086918996 
  298500     1.000857    23.999883    4.6008702    1.5012818     6.102152    4.5914217 0.0094484911 
  300000    1.0049723    24.024886    4.6008334    1.5074547    6.1082881    4.5914943 0.0093391397 
  301500   0.99993798    23.955248    4.6010659    1.4999032    6.1009691    4.5917433 0.0093226238 
  303000    1.0006281    23.981862    4.5989685    1.5009384    6.0999069     4.590142 0.0088264995 
  304500    1.0003698    23.956122    4.5989437    1.5005509    6.0994947    4.5899612 0.0089825913 
  306000     1.001578    23.916922    4.5983981    1.5023633    6.1007613    4.5895215 0.0088765552 
  307500    0.9992542    23.974444    4.5975646    1.4988776    6.0964421    4.5885302 0.0090343355 
  309000    1.0015699    23.980654    4.6017623    1.5023511    6.1041134    4.5918578 0.0099045663 
  310500    1.0008073    24.000185    4.6000633    1.5012071    6.1012704    4.5901544 0.0099088653 
  312000     1.003139    23.960555    4.5979315    1.5047047    6.1026362    4.5888539 0.0090775887 
  313500   0.99964075    24.002017    4.5978157    1.4994574    6.0972731    4.5888238 0.0089919168 
  315000    1.0007228    23.911704    4.5969909    1.5010805    6.0980714    4.5879559 0.0090350501 
  316500    1.0004676    23.990396    4.5975525    1.5006976    6.0982501     4.588313 0.0092395734 
  318000   0.99827485    23.986639    4.6004847    1.4974085    6.0978933    4.5908553 0.0096294627 
  319500     1.002355    24.006984    4.6011132    1.5035287    6.1046419    4.5915341   0.00957902 
  321000    1.0026153    23.911932    4.5985029    1.5039191    6.1024221    4.5899262 0.0085766908 
  322500    1.0020945    23.936658     4.598674     1.503138     6.101812    4.5891349 0.0095391159 
  324000   0.99992254    23.997105    4.6008387    1.4998801    6.1007188    4.5919643 0.0088743455 
  325500    1.0016419    23.980778    4.5989211    1.5024591    6.1013803    4.5898973 0.0090238026 
  327000   0.99854619    23.906457    4.6005796    1.4978155    6.0983951    4.5917701 0.0088094256 
  328500    1.0017938    23.947174    4.5974603     1.502687    6.1001472    4.5884797 0.0089805556 
  330000    1.0023782    24.090651    4.5986609    1.5035636    6.1022245    4.5894507 0.0092102414 
  331500   0.99974079    23.940575    4.5982483    1.4996074    6.0978558    4.5887705 0.0094778497 
  333000    1.0005777    23.917402    4.6007991    1.5008628    6.1016619    4.5908439 0.0099551838 
  334500    1.0006466    23.983852    4.5987558    1.5009662    6.0997221    4.5899195 0.0088363214 
  336000   0.99850235    23.901561    4.5985133    1.4977498    6.0962631    4.5892357 0.0092776539 
  337500    1.0013735    24.045017    4.5986207    1.5020566    6.1006773    4.5888953 0.0097254114 
  339000    1.0000498    23.986011    4.5981113    1.5000709    6.0981822     4.588388 0.0097233314 
  340500   0.99945491    23.950955     4.602102    1.4991786    6.1012806    4.5926833 0.0094186459 
  342000    1.0027359    23.978816    4.6014328    1.5041001    6.1055329     4.592168 0.0092648086 
  343500    1.0003764    24.021987     4.598205    1.5005609    6.0987659    4.5885133 0.0096917424 
  345000    1.0003369    23.934494    4.5990166    1.5005017    6.0995183    4.5897474 0.0092691886 
  346500    1.0016203    23.955291    4.5984963    1.5024267     6.100923    4.5896173 0.0088789185 
  348000    1.0024585    23.996633     4.599842     1.503684     6.103526     4.590718 0.0091239289 
  349500   0.99954565    23.971685    4.6002378    1.4993147    6.0995525    4.5907735 0.0094642807 
  351000     1.002863    24.001866    4.5985234    1.5042907    6.1028141    4.5894513  0.009072146 
  352500   0.99937258    23.895578    4.6000312    1.4990551    6.0990863    4.5904233 0.0096078999 
  354000    1.0018736    23.953423    4.6000276    1.5028067    6.1028343    4.5911235 0.0089040449 
  355500    1.0024717    24.001418    4.5988131    1.5037038     6.102517    4.5896501 0.0091630564 
  357000    1.0014109    23.953118    4.5980602    1.5021126    6.1001729    4.5890244 0.0090358129 
  358500    1.0016623    23.950871    4.6011049    1.5024897    6.1035946     4.591466 0.0096388693 
  360000    1.0034568    24.035202     4.600529    1.5051815    6.1057104    4.5911415 0.0093874601 
  361500   0.99958702    24.010035    4.6007782    1.4993768     6.100155    4.5912003 0.0095779536 
  363000    1.0002934    24.025709    4.5995641    1.5004363    6.1000003    4.5902444 0.0093196198 
  364500   0.99673696    23.961986    4.5994759    1.4951017    6.0945776    4.5896012 0.0098747875 
  366000     1.000999    23.948904    4.5967948    1.5014948    6.0982895    4.5873284  0.009466397 
  367500   0.99892872    24.000891     4.600501    1.4983893    6.0988903    4.5912246 0.0092764267 
  369000    1.0014087    24.020702    4.6007671    1.5021093    6.1028764    4.5909823 0.0097848099 
  370500    1.0002301    23.979233    4.5995037    1.5003414     6.099845    4.5901317 0.0093719111 
  372000     1.000515    23.974461    4.5971407    1.5007687    6.0979095    4.5877263 0.0094144342 
  373500   0.99976066    23.933591    4.6000076    1.4996372    6.0996448     4.590848 0.0091595634 
  375000    1.0009063    23.965138    4.6002026    1.5013557    6.1015583    4.5912857 0.0089168784 
  376500    1.0011239    24.030578    4.6003944    1.5016822    6.1020766    4.5905473 0.0098470879 
  378000    1.0025564    23.936754    4.6006758    1.5038308    6.1045067    4.5912561 0.0094197117 
  379500    1.0005574    24.011312    4.5995157    1.5008323    6.1003481    4.5900088 0.0095068997 
  381000    1.0022088    23.981797    4.6013464    1.5033095    6.1046558    4.5917496 0.0095967663 
  382500    1.0004363    23.897263    4.5998216    1.5006507    6.1004722    4.5904228 0.0093987472 
  384000    1.0016173    24.011033    4.5997806    1.5024223    6.1022028    4.5903844 0.0093961494 
  385500    1.0010189    23.886132    4.6006971    1.5015245    6.1022216      4.59094 0.0097571356 
  387000    1.0002036    23.993041    4.6000543    1.5003016    6.1003559    4.5908699 0.0091844381 
  388500     1.000787    23.929594    4.5999007    1.5011767    6.1010774    4.5910274 0.0088733726 
  390000    1.0028189    23.939097    4.5979612    1.5042245    6.1021857    4.5885554 0.0094057902 
  391500   0.99951602    23.963035    4.6008116    1.4992703    6.1000819    4.5921555 0.0086561037 
  393000    1.0035142    23.906095     4.596686    1.5052676    6.1019537    4.5878435 0.0088425004 
  394500      1.00258    24.038586    4.6015164    1.5038662    6.1053826    4.5924117 0.0091046581 
  396000    1.0023457    23.949964    4.5978819    1.5035148    6.1013967    4.5887884  0.009093527 
  397500    1.0016343    23.952482    4.5991132    1.5024478     6.101561    4.5895972 0.0095159751 
  399000    1.0014426    23.950303    4.5983919    1.5021601    6.1005521    4.5896529 0.0087390769 
  400500    1.0012425    23.956673    4.5979731      1.50186    6.0998331    4.5892389 0.0087341166 
  402000    1.0027524    24.006886    4.5990739    1.5041248    6.1031987    4.5897579 0.0093160543 
  403500    1.0010666    24.041035    4.6003801    1.5015962    6.1019763    4.5910967 0.0092834629 
  405000    1.0022312    23.889915    4.5993246    1.5033431    6.1026678    4.5901256 0.0091990176 
  406500   0.99990447    23.956214     4.597756     1.499853     6.097609    4.5887048 0.0090512608 
  408000      1.00296     24.02147    4.6004476    1.5044363    6.1048839    4.5915455 0.0089020194 
  409500    1.0024124    23.943652    4.5981797    1.5036149    6.1017946     4.589049 0.0091307419 
  411000   0.99928572    23.995128    4.5979653    1.4989248    6.0968901    4.5888745 0.0090907933 
  412500    1.0022196    23.916181    4.6004021    1.5033256    6.1037277    4.5910059 0.0093961707 
  414000    1.0010739    23.953543    4.5980803    1.5016072    6.0996874     4.588266  0.009814299 
  415500    1.0015042    23.937612    4.5986155    1.5022526    6.1008681    4.5889372 0.0096783565 
  417000   0.99886667    24.008006     4.598353    1.4982963    6.0966492    4.5888774 0.0094755217 
  418500    1.0025272    23.999745    4.5977484    1.5037871    6.1015355    4.5886576 0.0090908048 
  420000   0.99884396    23.943551    4.6005449    1.4982622    6.0988071    4.5911364 0.0094085515 
  421500    1.0026832    24.004161    4.6000289    1.5040211      6.10405    4.5910353 0.0089935844 
  423000    1.0018055     23.99435    4.5978858    1.5027045    6.1005904    4.5886257 0.0092601781 
  424500    1.0007282    23.989495    4.5985182    1.5010886    6.0996068    4.5890396    0.0094786 
  426000    1.0029945    23.936957    4.5984025    1.5044881    6.1028906    4.5889598 0.0094427145 
  427500    1.0002485    23.930639    4.5971005    1.5003691    6.0974695    4.5874487 0.0096517886 
  429000    1.0020511        23.99    4.5983449    1.5030728    6.1014177    4.5893558 0.0089890431 
  430500    1.0018004    24.025871    4.5972991    1.5026968    6.0999959    4.5883825 0.0089165984 
  432000   0.99996804    23.933394    4.5998735    1.4999483    6.0998218    4.5906861 0.0091873529 
  433500    1.0007588     23.94861    4.6006255    1.5011344    6.1017599    4.5912506 0.0093749236 
  435000    1.0003137     23.96369    4.5985162    1.5004668     6.098983    4.5895035 0.0090126788 
  436500   0.99835314    23.969895    4.5970263     1.497526    6.0945522     4.587841 0.0091853078 
  438000    1.0009791    23.959915    4.5986495    1.5014649    6.1001144    4.5896624  0.008987153 
  439500     1.002368    23.970565    4.5977105    1.5035482    6.1012587    4.5890155 0.0086949791 
  441000    1.0013238    23.912086    4.6002364    1.5019819    6.1022183    4.5914515  0.008784942 
  442500    1.0011041     23.99604    4.5990617    1.5016524    6.1007141    4.5896996 0.0093621307 
  444000     1.000743    24.000396    4.6000853    1.5011108     6.101196    4.5906499 0.0094353293 
  445500    0.9995328    23.944634    4.6008073    1.4992955    6.1001028    4.5911174 0.0096899125 
  447000    1.0008718    23.896455    4.5993556     1.501304    6.1006596    4.5902935 0.0090621052 
  448500    0.9996444    23.936121    4.5991669    1.4994628    6.0986297    4.5898419 0.0093249067 
  450000   0.99945859    23.885677    4.5992393    1.4991841    6.0984234    4.5895132 0.0097260611 
  451500    1.0020026     23.98826    4.5970768    1.5030001     6.100077    4.5879009 0.0091758873 
  453000     1.001018    24.020003    4.5995761    1.5015232    6.1010993    4.5902008 0.0093753255 
  454500    1.0001802    24.032595    4.5975917    1.5002665    6.0978582    4.5883886 0.0092031007 
  456000    0.9998785    23.931306    4.6003333     1.499814    6.1001474    4.5908107 0.0095226244 
  457500    1.0015064    23.978958      4.59918    1.5022559    6.1014359    4.5900559 0.0091241671 
  459000    1.0017552    24.048287    4.5991984     1.502629    6.1018273    4.5902873 0.0089110297 
  460500     1.001007    23.967422    4.5972636    1.5015067    6.0987703    4.5879165 0.0093471134 
  462000    1.0009032    23.985256    4.5991893    1.5013511    6.1005403    4.5895025 0.0096867595 
  463500    1.0027434    23.908503    4.5983025    1.5041113    6.1024138    4.5889702 0.0093323302 
  465000    1.0005732    23.972683    4.5989277     1.500856    6.0997837    4.5897552 0.0091725297 
  466500    1.0007309    23.916052    4.5988517    1.5010927    6.0999444    4.5894186 0.0094331681 
  468000     1.001809    23.951531      4.59715    1.5027098    6.0998598    4.5880541 0.0090959061 
  469500    0.9994538    23.991977    4.5997991     1.499177     6.098976    4.5904957 0.0093033879 
  471000    1.0011306    23.974289    4.5991538    1.5016921    6.1008459    4.5898689 0.0092848422 
  472500    1.0024982    24.000522    4.6001292    1.5037436    6.1038728    4.5909605 0.0091687214 
  474000    1.0032344    24.031429    4.5993048    1.5048479    6.1041527    4.5902779 0.0090269821 
  475500    1.0003168    23.963633    4.5969106    1.5004715    6.0973821    4.5877883 0.0091222195 
  477000    1.0009385    23.912395    4.5967333     1.501404    6.0981373    4.5880007 0.0087325346 
  478500    1.0015206    23.976572    4.6002797    1.5022772    6.1025569    4.5908305 0.0094492013 
  480000   0.99929841    23.919531    4.5985242    1.4989439    6.0974681    4.5894285 0.0090957293 
  481500   0.99923135    23.985611    4.5969625    1.4988433    6.0958058    4.5877901 0.0091724093 
  483000    1.0029696    23.971574    4.5985281    1.5044506    6.1029787    4.5891789 0.0093492289 
  484500   0.99908637    23.881396    4.5996765    1.4986258    6.0983023    4.5906565 0.0090200587 
  486000    0.9995214    23.928483    4.5997988    1.4992784    6.0990772    4.5911044 0.0086943512 
  487500    1.0000614    23.928145    4.5998691    1.5000884    6.0999575    4.5904313 0.0094377928 
  489000    1.0032884    23.981739    4.5998015    1.5049289    6.1047304    4.5906402 0.0091612823 
  490500    1.0004372    24.012891    4.5997312    1.5006521    6.1003833    4.5902404 0.0094908234 
  492000     1.000534    23.953763    4.5973803    1.5007973    6.0981777    4.5882388 0.0091415885 
  493500    1.0011043    23.944845    4.5982431    1.5016527    6.0998958    4.5886106 0.0096325173 
  495000    1.0008312    23.926825    4.5991666    1.5012431    6.1004097     4.589991 0.0091756373 
  496500   0.99882183    23.934913    4.5979252     1.498229    6.0961542    4.5883648 0.0095603762 
  498000   0.99814942     23.94087    4.6004341    1.4972204    6.0976545    4.5917051 0.0087290094 
  499500    1.0009049    23.913291    4.5967669    1.5013537    6.0981206    4.5873919 0.0093750114 
  501000     1.001666    24.025363    4.5977749    1.5024953    6.1002702    4.5884537 0.0093212584 
  502500    1.0010179    23.972596    4.5985793    1.5015231    6.1001024     4.589442 0.0091373108 
  504000    1.0017186    23.964276    4.5969935    1.5025741    6.0995677     4.588267 0.0087265685 
  505500   0.99870597    23.904861     4.598319    1.4980552    6.0963742    4.5881598  0.010159199 
  507000     1.001925    23.951937     4.601406    1.5028837    6.1042896    4.5916667 0.0097392407 
  508500    1.0005019    23.965863    4.5962879    1.5007492     6.097037    4.5870427 0.0092451582 
  510000   0.99969536    24.011495    4.5999476    1.4995393    6.0994869    4.5909735 0.0089740369 
  511500    1.0006755     23.99795    4.5974025    1.5010095     6.098412    4.5888303 0.0085721582 
  513000    1.0011852    23.914149    4.5984668    1.5017741    6.1002409      4.58939  0.009076736 
  514500   0.99971763    24.005824    4.5993968    1.4995727    6.0989695     4.590307 0.0090897745 
  516000    1.0007332    23.968323    4.5986055     1.501096    6.0997015    4.5890927  0.009512793 
  517500   0.99978371    24.011132    4.5988401    1.4996718    6.0985119    4.5895198 0.0093203076 
  519000     1.002154    23.958599    4.5988985    1.5032272    6.1021257    4.5893917 0.0095068336 
  520500    1.0002983    23.918455    4.5983544    1.5004437    6.0987981    4.5889672 0.0093872434 
  522000    1.0010651    23.942018    4.6002079    1.5015939    6.1018018    4.5913288 0.0088791253 
  523500    1.0014184    23.955629    4.6006803    1.5021238    6.1028041    4.5910934 0.0095869205 
  525000    1.0013011    23.960141    4.5979426    1.5019479    6.0998905    4.5891754 0.0087671783 
  526500    1.0012434    23.943367     4.597899    1.5018613    6.0997603    4.5885095 0.0093895261 
  528000    1.0009633    23.902436    4.5994016    1.5014412    6.1008429    4.5904976 0.0089040316 
  529500    1.0004424    23.998071    4.5981519    1.5006598    6.0988117    4.5889288 0.0092230656 
  531000     1.001092    23.998065    4.5977692    1.5016343    6.0994034    4.5887012  0.009067955 
  532500    1.0015425    23.966832    4.5999054      1.50231    6.1022154    4.5910741 0.0088313137 
  534000   0.99947868    23.982037    4.5986984    1.4992143    6.0979127    4.5895251 0.0091733048 
  535500     1.001105    24.009704      4.59899    1.5016538    6.1006438    4.5894258  0.009564245 
  537000    1.0020387    23.891175    4.5967053    1.5030544    6.0997597    4.5874935 0.0092117729 
  538500   0.99889756    24.007162    4.6001364    1.4983426     6.098479    4.5905747 0.0095617131 
  540000    1.0003444    23.975087    4.5999149    1.5005129    6.1004278    4.5904739 0.0094410179 
  541500    1.0032918    23.982025    4.5987719     1.504934    6.1037059    4.5897035 0.0090684085 
  543000    1.0021801    24.001546    4.6009528    1.5032663    6.1042191    4.5916505 0.0093022886 
  544500    1.0004078     23.99576    4.5990478    1.5006079    6.0996557    4.5900564 0.0089914143 
  546000    1.0003639     23.91712    4.5973985     1.500542    6.0979405    4.5883201 0.0090783131 
  547500    1.0031511    24.012627    4.5999977    1.5047229    6.1047207    4.5908311 0.0091665811 
  549000    1.0000015     24.04964    4.5975384    1.4999986     6.097537    4.5883649 0.0091735254 
  550500   0.99845487    23.999243    4.5966483    1.4976786    6.0943269    4.5875554 0.0090929338 
  552000    1.0005302    23.954255      4.59689    1.5007915    6.0976815    4.5873519 0.0095380995 
  553500    1.0009661    23.960076    4.5989975    1.5014454    6.1004429    4.5898178 0.0091797452 
  555000    1.0027844    23.963919    4.5964848    1.5041728    6.1006576    4.5869581 0.0095267598 
  556500   0.99974526    23.936594    4.5962458    1.4996141    6.0958599    4.5872395 0.0090062491 
  558000   0.99990711    23.900987    4.5988063    1.4998569    6.0986632    4.5892787 0.0095276283 
  559500    1.0023843    23.972792    4.5980939    1.5035727    6.1016666    4.5888283 0.0092656121 
  561000   0.99800509    23.989005    4.6006937    1.4970039    6.0976976    4.5914813 0.0092123443 
  562500    1.0021076    24.021088    4.5991323    1.5031576    6.1022899    4.5899289 0.0092033297 
  564000   0.99945014    23.915993    4.6012145    1.4991715     6.100386    4.5922455 0.0089690543 
  565500    1.0017011    23.977862    4.5965736    1.5025479    6.0991215    4.5876468 0.0089268948 
  567000    1.0007294    23.979985    4.5981069    1.5010904    6.0991973    4.5891907 0.0089162532 
  568500   0.99972029    23.944041    4.5986369    1.4995767    6.0982136    4.5889729 0.0096640766 
  570000    1.0017955    23.985492    4.5953544    1.5026896    6.0980439    4.5859447  0.009409617 
  571500   0.99890626    23.980178    4.5995947    1.4983557    6.0979504    4.5902342 0.0093605061 
  573000    1.0028114    24.026515    4.5978855    1.5042133    6.1020988    4.5883694 0.0095160974 
  574500     1.000412    23.967716    4.5994863    1.5006143    6.1001006    4.5900371 0.0094492175 
  576000    1.0002245    23.964998    4.5994528     1.500333    6.0997858    4.5899989 0.0094538999 
  577500     1.000676    23.989605    4.5997105    1.5010102    6.1007207     4.590454 0.0092564591 
  579000    1.0020105    23.905233    4.5981962     1.503012    6.1012083    4.5886043 0.0095919454 
  580500     1.001173    23.925751    4.5992461    1.5017557    6.1010018    4.5902698 0.0089763129 
  582000    1.0008346    24.008344     4.597483    1.5012481    6.0987311    4.5884636   0.00901943 
  583500    1.0005304    23.938704    4.5977865    1.5007919    6.0985784    4.5888838 0.0089027154 
  585000    1.0025471    23.957257    4.5982448    1.5038169    6.1020617    4.5888488 0.0093959686 
  586500   0.99966833    23.978294    4.5988148    1.4994988    6.0983136    4.5894087  0.009406122 
  588000   0.99799514    23.895057    4.5986372     1.496989    6.0956262    4.5901209 0.0085162814 
  589500   0.99921272     23.95974    4.5992554    1.4988153    6.0980707    4.5897222 0.0095332184 
  591000   0.99845548    23.979287    4.5964852    1.4976795    6.0941646    4.5873723 0.0091128619 
  592500   0.99923804    24.014301    4.5972222    1.4988533    6.0960755    4.5887609 0.0084613076 
  594000    1.0011943    23.978682     4.600048    1.5017876    6.1018356    4.5901829 0.0098650594 
  595500   0.99954607    23.925747    4.5987638    1.4993154    6.0980792    4.5899772 0.0087866388 
  597000    1.0019356    23.918199    4.6000513    1.5028997     6.102951    4.5905485 0.0095027797 
  598500   0.99988117     24.00016    4.5968761     1.499818    6.0966941    4.5875686 0.0093074532 
  600000    1.0013381    23.930752    4.5978601    1.5020034    6.0998635     4.588678 0.0091820586 
  601500    1.0014365    24.041371    4.6000004     1.502151    6.1021514    4.5905541 0.0094462458 
  603000    1.0021498    23.955581    4.5995137    1.5032209    6.1027346    4.5896743 0.0098394136 
  604500     1.002857    23.964664     4.596918    1.5042817    6.1011997    4.5877343 0.0091837338 
  606000    1.0011162    24.025929    4.5990859    1.5016706    6.1007565    4.5897771 0.0093088338 
  607500    1.0006616    23.916185     4.598451    1.5009887    6.0994397    4.5892957 0.0091553174 
  609000    1.0022948    23.977313    4.5981892    1.5034384    6.1016276    4.5886728 0.0095163754 
  610500   0.99753127    23.903082     4.600746    1.4962932    6.0970392    4.5918452 0.0089007632 
  612000    1.0013682    23.942209    4.5993705    1.5020485     6.101419    4.5902007 0.0091697919 
  613500    1.0009537    23.959216    4.5988408    1.5014268    6.1002676    4.5892416 0.0095992016 
  615000    1.0025657    23.918993    4.5971825    1.5038448    6.1010273     4.588043 0.0091395285 
  616500    1.0001514    24.017236    4.5981628    1.5002234    6.0983862    4.5890587 0.0091041695 
  618000    1.0013842     23.93301    4.5996739    1.5020725    6.1017465    4.5909875 0.0086864716 
  619500   0.99865198    23.876745     4.597541    1.4979742    6.0955152    4.5886019 0.0089390908 
  621000     1.000664    24.014925    4.5979835    1.5009923    6.0989758    4.5884578 0.0095257466 
  622500    1.0002607     24.03121    4.5988332    1.5003873    6.0992205    4.5894871 0.0093461671 
  624000    1.0007148    23.905915    4.5960582    1.5010685    6.0971267     4.586415 0.0096432015 
  625500     1.001345    23.958102    4.5977169    1.5020138    6.0997307    4.5890948  0.008622159 
  627000   0.99909593    23.938123    4.5971156    1.4986402    6.0957558    4.5882345  0.008881129 
  628500   0.99833114    23.977755    4.5986842     1.497493    6.0961772    4.5897849 0.0088993738 
  630000    1.0016138    23.950992    4.5979916     1.502417    6.1004085    4.5888556 0.0091359623 
  631500   0.99920933     24.01635    4.5982961    1.4988103    6.0971064    4.5889619 0.0093342069 
  633000    0.9998028    23.964579    4.5967781    1.4997005    6.0964785    4.5874337 0.0093444128 
  634500    1.0003285    23.971471    4.5992244     1.500489    6.0997134     4.590491 0.0087333539 
  636000    1.0013062    23.952594    4.5990301    1.5019555    6.1009856     4.590203 0.0088270575 
  637500   0.99980676      23.9994    4.5998851    1.4997064    6.0995915    4.5899069 0.0099781615 
  639000    1.0015423    23.979797     4.598091    1.5023097    6.1004007    4.5889757  0.009115318 
  640500    1.0004317    23.978575    4.5995136    1.5006438    6.1001574    4.5904204 0.0090931751 
  642000   0.99929226    23.923722    4.6017257    1.4989346    6.1006604    4.5923505 0.0093752667 
  643500    0.9975783    23.906214    4.5985137    1.4963637    6.0948774    4.5892199 0.0092938664 
  645000   0.99807905    23.940944    4.5972042    1.4971148     6.094319     4.588596 0.0086081702 
  646500    1.0017061    23.966787    4.5984039    1.5025554    6.1009593    4.5889673 0.0094365243 
  648000    1.0001464    24.007071    4.5962795    1.5002159    6.0964954     4.586967  0.009312473 
  649500    0.9970784    23.951991    4.5985355    1.4956139    6.0941494     4.589464 0.0090715365 
  651000    1.0027646    24.016518    4.5987769    1.5041432    6.1029201    4.5893808  0.009396134 
  652500   0.99964746    23.926718    4.5991428    1.4994675    6.0986102    4.5900459 0.0090969238 
  654000    1.0015858    23.958722    4.5985711     1.502375    6.1009461    4.5887448 0.0098262795 
  655500   0.99881423    23.925096    4.6016737    1.4982176    6.0998913    4.5921192 0.0095544872 
  657000     1.000335    23.983069    4.5967885    1.5004987    6.0972872    4.5876708 0.0091176544 
  658500   0.99943284    23.931453    4.5996806    1.4991455    6.0988261    4.5900131 0.0096675041 
  660000   0.99973512    24.022439    4.5984176    1.4995989    6.0980165    4.5886693 0.0097482825 
  661500    1.0020935    24.032501    4.5976685    1.5031365     6.100805    4.5879679 0.0097006327 
  663000    1.0034858    23.965764    4.6017807    1.5052249    6.1070056    4.5923727 0.0094080765 
  664500   0.99939942    23.875234    4.5968189    1.4990954    6.0959142    4.5881525 0.0086663844 
  666000    1.0010952    23.947678    4.6004575    1.5016391    6.1020966    4.5908996 0.0095578886 
  667500    1.0020624    23.865792    4.5984633    1.5030899    6.1015532     4.588662 0.0098012632 
  669000    1.0035033    24.004563     4.598891    1.5052512    6.1041422     4.589169 0.0097220395 
  670500    1.0001595    23.973002    4.6000872    1.5002355    6.1003226    4.5907771 0.0093100359 
  672000     1.001615    24.051585     4.598133    1.5024187    6.1005517    4.5887324 0.0094006293 
  673500    1.0001492     23.99583    4.5985262      1.50022    6.0987462    4.5894563 0.0090699265 
  675000     1.000356    23.911389     4.599112    1.5005303    6.0996423    4.5895371 0.0095749379 
  676500   0.99928706    23.921747    4.5981751    1.4989268    6.0971019    4.5882509 0.0099241937 
  678000    1.0012551    24.013503    4.5992009    1.5018789    6.1010798    4.5899839 0.0092170146 
  679500    1.0020343    24.013812    4.5971724    1.5030477    6.1002201    4.5879842 0.0091882117 
  681000   0.99979162     23.93642    4.5974758    1.4996837    6.0971594    4.5882652 0.0092105345 
  682500    1.0008669    23.965887    4.5978767    1.5012966    6.0991733     4.588589 0.0092876582 
  684000    1.0009469    23.963471    4.5976577    1.5014166    6.0990742    4.5886645 0.0089932085 
  685500    1.0012633    24.015776    4.5967124    1.5018912    6.0986036    4.5876598 0.0090526599 
  687000    1.0024358    24.004337    4.5981562      1.50365    6.1018062    4.5889348 0.0092213775 
  688500   0.99870151    23.947487    4.5992334    1.4980485    6.0972819    4.5898034 0.0094300242 
  690000    1.0007092    23.988484    4.5992529    1.5010601    6.1003129    4.5902372 0.0090156462 
  691500    1.0015552    23.852891    4.5964715    1.5023291    6.0988006    4.5874624 0.0090090796 
  693000    1.0037366     24.02237    4.5971754    1.5056011    6.1027765    4.5881446 0.0090308488 
  694500    1.0005788    23.951726    4.5981288    1.5008644    6.0989932    4.5894871 0.0086417411 
  696000    1.0002499    23.926656    4.5974878    1.5003712     6.097859    4.5887912 0.0086966375 
  697500    1.0012523    23.984872    4.5972222    1.5018746    6.0990968    4.5877892 0.0094329417 
  699000    1.0008509    23.936484    4.5980446    1.5012727    6.0993172     4.588464 0.0095806161 
  700500   0.99995409     23.95132    4.5991541    1.4999274    6.0990815    4.5896201 0.0095340184 
  702000    1.0028082    23.965119    4.5983366    1.5042086    6.1025452    4.5885563 0.0097802642 
  703500    1.0028806    23.943481    4.5963095    1.5043172    6.1006267    4.5868777 0.0094317411 
  705000    1.0013599    23.905163    4.5971752    1.5020361    6.0992114    4.5875252 0.0096499887 
  706500     1.001061    24.009461    4.5976906    1.5015877    6.0992783    4.5885619 0.0091287815 
  708000    1.0012736    24.001875    4.5973879    1.5019066    6.0992946    4.5882749 0.0091130684 
  709500    1.0008092    23.918492    4.5988304      1.50121    6.1000405    4.5894948 0.0093356659 
  711000    1.0010538    23.909102    4.5979161    1.5015769     6.099493    4.5894086 0.0085074247 
  712500    1.0018762    23.919623    4.5978298    1.5028105    6.1006402    4.5885594  0.009270395 
  714000    1.0024727    23.976479    4.5975027    1.5037053     6.101208    4.5881792 0.0093234831 
  715500   0.99912435    23.868703    4.5969359    1.4986828    6.0956187    4.5882995 0.0086363872 
  717000    1.0005063    23.930409    4.5987393    1.5007557    6.0994951    4.5894447 0.0092946334 
  718500    1.0007912    23.985733    4.5960511     1.501183    6.0972341    4.5868243 0.0092267954 
  720000    1.0013314    23.987364    4.5979998    1.5019933    6.0999931    4.5883829 0.0096169345 
  721500   0.99920004    23.918296    4.5974525    1.4987963    6.0962488    4.5881295 0.0093229709 
  723000   0.99909755    24.005884    4.5979729    1.4986426    6.0966155    4.5886415 0.0093313566 
  724500    1.0014997    23.964962    4.5999802    1.5022458     6.102226    4.5907105 0.0092697598 
  726000   0.99986241    23.928896    4.5986686    1.4997899    6.0984584    4.5894432 0.0092254079 
  727500   0.99970901    24.004284    4.5986494    1.4995598    6.0982092    4.5894376 0.0092118436 
  729000    1.0004098    23.977767    4.6009519    1.5006109    6.1015628    4.5919109 0.0090409673 
  730500     1.002796    23.923957    4.5964927    1.5041902    6.1006829    4.5875128 0.0089799381 
  732000   0.99961924    24.023687    4.5976619    1.4994251     6.097087    4.5887136 0.0089482413 
  733500    1.0004877    23.996265    4.5991059    1.5007278    6.0998337    4.5897534 0.0093525545 
  735000    1.0018595    23.965422    4.5994572    1.5027855    6.1022427    4.5901689 0.0092883129 
  736500    1.0008161    23.919511    4.5997688    1.5012204    6.1009893    4.5907149  0.009053901 
  738000    1.0014467    23.934739    4.5982304    1.5021663    6.1003966    4.5889527 0.0092777358 
  739500    0.9980594    23.971399    4.5972566    1.4970854     6.094342    4.5880651 0.0091915047 
  741000    1.0006745    23.898232    4.5959299     1.501008     6.096938    4.5872967 0.0086332561 
  742500   0.99923771    23.988531     4.599638    1.4988528    6.0984908    4.5902518 0.0093862285 
  744000   0.99947189    23.958687    4.5969655    1.4992041    6.0961696    4.5882884 0.0086770847 
  745500    1.0007412    23.988349    4.6002549     1.501108    6.1013629    4.5910127 0.0092422185 
  747000    1.0007683    23.911529    4.5986652    1.5011487    6.0998139    4.5901149 0.0085502781 
  748500    1.0024656    23.943412    4.5976949    1.5036947    6.1013896    4.5882372 0.0094576255 
  750000   0.99880942    23.921309    4.5994354    1.4982104    6.0976458    4.5898179 0.0096174994 
  751500    1.0005025    23.907487    4.6009267    1.5007499    6.1016766    4.5922108 0.0087159026 
  753000    1.0033748    23.892477    4.6009514    1.5050585    6.1060098    4.5913998 0.0095515637 
  754500    1.0002133    24.062555    4.5985084    1.5003161    6.0988246     4.589174 0.0093344005 
  756000    1.0021142     24.06277    4.5965427    1.5031675    6.0997102    4.5875569 0.0089857011 
  757500     1.001004    23.951187    4.5985702    1.5015023    6.1000725      4.58997 0.0086002029 
  759000    1.0019631    24.033206    4.5963021    1.5029408     6.099243    4.5870155 0.0092866552 
  760500    1.0029101    23.972568    4.6002901    1.5043613    6.1046514    4.5904533 0.0098368389 
  762000    1.0006858    23.890597    4.5982468    1.5010249    6.0992716    4.5889814 0.0092653555 
  763500   0.99953059    23.931376    4.5984452    1.4992921    6.0977373    4.5895518 0.0088933519 
  765000    1.0009131    23.973498    4.5983212    1.5013659    6.0996871    4.5890437 0.0092775341 
  766500    1.0036942    23.967869    4.5977686    1.5055376    6.1033062    4.5884784 0.0092901939 
  768000   0.99944699    23.969542    4.5982081    1.4991667    6.0973749    4.5887838 0.0094243455 
  769500    1.0018194    23.925049    4.5966914    1.5027253    6.0994167    4.5873874 0.0093040414 
  771000    1.0000651    23.960309    4.5991925     1.500094    6.0992865    4.5899223 0.0092701989 
  772500    1.0022161    23.937128    4.5982884    1.5033205    6.1016089    4.5888625 0.0094258672 
  774000    1.0020371    23.971539    4.5998534    1.5030519    6.1029053    4.5900413  0.009812148 
  775500    1.0006606    23.989808    4.5986261    1.5009872    6.0996133    4.5894862 0.0091399817 
  777000   0.99925456    23.909387    4.5968165    1.4988781    6.0956946    4.5871249 0.0096915517 
  778500   0.99961126    23.903941    4.6006758    1.4994131     6.100089    4.5911916 0.0094841842 
  780000     1.001793      24.0322    4.5994684    1.5026857    6.1021541    4.5900343   0.00943414 
  781500     1.001238    23.957028    4.6009457    1.5018532    6.1027989    4.5913629 0.0095828052 
  783000   0.99975752    24.029352    4.5971001    1.4996325    6.0967327    4.5880738 0.0090263518 
  784500    1.0034992    23.927136    4.5990689     1.505245    6.1043139    4.5900943 0.0089746114 
  786000    1.0006846    23.943379    4.5980559    1.5010232    6.0990791     4.588996 0.0090598761 
  787500    1.0005837    23.969896    4.5969553    1.5008718    6.0978271    4.5879316 0.0090237686 
  789000    1.0033185    23.948781    4.5968709    1.5049739    6.1018448    4.5876292 0.0092416272 
  790500    1.0020306    23.943679    4.5981932    1.5030422    6.1012354    4.5886802 0.0095129827 
  792000    1.0012035    23.932006    4.5969681    1.5018015    6.0987696     4.588186 0.0087821196 
  793500   0.99775167    23.977955    4.5985491    1.4966238    6.0951729    4.5894708 0.0090783062 
  795000    1.0021257      23.9296    4.5973807    1.5031849    6.1005656    4.5884845 0.0088962332 
  796500   0.99976873    23.912522     4.601214    1.4996493    6.1008633    4.5916833 0.0095306921 
  798000   0.99981491    23.967019    4.5988327    1.4997186    6.0985513    4.5895683 0.0092644324 
  799500    0.9995003     23.96983    4.5967269    1.4992467    6.0959736    4.5877893 0.0089375823 
  801000     1.000699    24.004894    4.5980268    1.5010447    6.0990715    4.5887024 0.0093244393 
  802500    1.0015546     23.97498     4.597914    1.5023282    6.1002422    4.5883959  0.009518107 
  804000    1.0018528     23.93052    4.5978915    1.5027755    6.1006669    4.5890127 0.0088787555 
  805500    1.0011134    23.885045    4.5992586    1.5016663    6.1009249    4.5895287 0.0097298803 
  807000    1.0022344    23.971771     4.597398    1.5033478    6.1007459    4.5878574 0.0095406758 
  808500   0.99971503    23.999197    4.5974854    1.4995688    6.0970542    4.5883046 0.0091808076 
  810000    1.0017495    23.884516    4.5958058    1.5026205    6.0984263    4.5868715 0.0089343259 
  811500    1.0000246    23.956702    4.5975444    1.5000332    6.0975776    4.5879459 0.0095984627 
  813000    1.0016001    23.978095    4.5968432    1.5023965    6.0992397    4.5871298 0.0097134078 
  814500    1.0015743    23.886406    4.5985632    1.5023577    6.1009208    4.5897354 0.0088277155 
  816000    1.0000603    23.897799     4.599397    1.5000868    6.0994837    4.5902236 0.0091733489 
  817500   0.99958099    23.986464     4.598587    1.4993677    6.0979547    4.5886189 0.0099681208 
  819000     1.000416     23.97283    4.5986417    1.5006203     6.099262    4.5894617 0.0091800276 
  820500    1.0001234    23.913751     4.598452    1.5001813    6.0986333    4.5886905 0.0097614563 
  822000   0.99892045     23.94949    4.5993446    1.4983769    6.0977215    4.5900859 0.0092587187 
  823500   0.99987836    23.912014    4.5961927    1.4998138    6.0960064     4.586648 0.0095446354 
  825000   0.99984822    23.937464    4.5980753    1.4997686    6.0978439    4.5889885  0.009086806 
  826500    1.0010349    23.953698    4.5970399    1.5015486    6.0985885    4.5879783 0.0090616157 
  828000    1.0019463    23.953471    4.5970067    1.5029157    6.0999224    4.5876944 0.0093123175 
  829500    1.0002832    23.969487     4.595307     1.500421     6.095728    4.5863936 0.0089133689 
  831000     1.000326    23.920305    4.5968659    1.5004853    6.0973512    4.5877049 0.0091609712 
  832500    1.0014174    23.888285    4.5973816    1.5021224     6.099504    4.5885731 0.0088085307 
  834000    1.0014401    24.046679    4.5981085    1.5021564    6.1002649    4.5889176 0.0091908746 
  835500    1.0004803      23.8859    4.5984142    1.5007167    6.0991309    4.5894042 0.0090100006 
  837000    1.0016608     24.01817    4.5995487    1.5024874    6.1020362    4.5904602 0.0090885428 
  838500     1.002597    24.020801    4.5990438    1.5038917    6.1029355    4.5900475 0.0089962683 
  840000    1.0019084    23.950337    4.5970478    1.5028589    6.0999067    4.5879846 0.0090631891 
  841500    1.0017343    23.986837    4.5947163    1.5025977     6.097314    4.5860328 0.0086834546 
  843000    1.0006028    23.930731    4.5982423    1.5009005    6.0991428    4.5896056 0.0086367492 
  844500    1.0027246    23.956009    4.5976827    1.5040831    6.1017658    4.5883459 0.0093367627 
  846000   0.99859493    24.011753    4.5994459    1.4978887    6.0973345    4.5900637 0.0093821349 
  847500    1.0002835    23.951145     4.598033    1.5004215    6.0984545    4.5886867 0.0093463312 
  849000    1.0012091    23.936428    4.5965549      1.50181    6.0983648    4.5875429 0.0090120075 
  850500    1.0016965    23.958401    4.5982686    1.5025409    6.1008095    4.5889332 0.0093353668 
  852000    1.0006227    23.964244    4.5979643    1.5009303    6.0988945    4.5886045 0.0093597695 
  853500    1.0014917    23.984357    4.5995827    1.5022338    6.1018164    4.5900083 0.0095744003 
  855000    1.0007401     23.89486    4.5994043    1.5011065    6.1005108    4.5899076  0.009496737 
  856500    1.0033978    23.898158    4.5985881    1.5050929     6.103681    4.5890867 0.0095013851 
  858000     1.003918    23.928736    4.5990049    1.5058733    6.1048782    4.5899212 0.0090836842 
  859500    1.0023499    24.001351    4.5997509    1.5035211     6.103272    4.5907564  0.008994522 
  861000   0.99909531    23.954088    4.5979341    1.4986392    6.0965734     4.588733 0.0092011339 
  862500   0.99922426    23.974886    4.6003406    1.4988326    6.0991732      4.59146 0.0088806173 
  864000    1.0018957    24.010477    4.5986889    1.5028399    6.1015288     4.589154 0.0095349006 
  865500    1.0029518     23.91635    4.5993003    1.5044239    6.1037242    4.5901128 0.0091874855 
  867000    1.0029806     23.99508     4.596558    1.5044671    6.1010251    4.5877674 0.0087905787 
  868500    1.0014197    23.971944    4.5995227    1.5021257    6.1016484    4.5904175  0.009105184 
  870000    1.0010277     24.01129    4.5971852    1.5015378     6.098723    4.5881287 0.0090564959 
  871500     1.000004    23.991081    4.5980126    1.5000023    6.0980149    4.5885467 0.0094658879 
  873000    1.0031469     23.93398    4.5987364    1.5047166     6.103453    4.5894957 0.0092407155 
  874500    1.0019907    23.912486    4.5967732    1.5029823    6.0997555    4.5871982 0.0095750486 
  876000    1.0011101    23.969619    4.6014576    1.5016614    6.1031191    4.5922158 0.0092418519 
  877500    1.0020198    23.960148    4.5998237     1.503026    6.1028497    4.5909241 0.0088996605 
  879000    1.0017187    24.002493    4.5954894    1.5025744    6.0980638    4.5861713 0.0093180814 
  880500   0.99791726    23.931734    4.5961458    1.4968721    6.0930179    4.5869541 0.0091916718 
  882000    1.0006097    23.971132    4.5983562    1.5009108     6.099267    4.5892314  0.009124802 
  883500   0.99995116     23.92858    4.5964676     1.499923    6.0963906    4.5874922 0.0089754259 
  885000    1.0015525     23.92463    4.5985779     1.502325    6.1009029    4.5891291  0.009448744 
  886500    1.0001359    23.990608    4.5987726    1.5002001    6.0989727    4.5894356 0.0093370389 
  888000    1.0005132    23.923303    4.5960894     1.500766    6.0968555    4.5866547 0.0094347504 
  889500    1.0008282    24.045491     4.599662    1.5012386    6.1009006    4.5902308 0.0094311752 
  891000      1.00044     23.92783    4.5970331    1.5006563    6.0976894    4.5879657 0.0090673718 
  892500    1.0029118     23.91751    4.5975862    1.5043639    6.1019501    4.5878313 0.0097549347 
  894000    1.0001146     23.94482    4.5962552    1.5001681    6.0964233    4.5867478  0.009507435 
  895500    1.0031171    23.949205     4.598253    1.5046719     6.102925    4.5891434 0.0091096173 
  897000    1.0021301    23.896108    4.5979452    1.5031913    6.1011365    4.5885988 0.0093463682 
  898500    0.9989286     23.97148    4.5968709    1.4983892      6.09526    4.5875331 0.0093377914 
  900000    0.9987539    23.950878    4.5982148    1.4981271    6.0963419    4.5887474 0.0094674013 
  901500    1.0007382    23.937774    4.6008506    1.5011036    6.1019543    4.5913907 0.0094599939 
  903000     1.002172    23.943692    4.5993549    1.5032543    6.1026091    4.5898772 0.0094776821 
  904500   0.99885438    23.885978    4.5990058    1.4982778    6.0972836    4.5892843 0.0097215695 
  906000    1.0013061    23.946944    4.5977453    1.5019554    6.0997007    4.5884249 0.0093204556 
  907500    1.0002326    23.937442    4.5991027    1.5003452    6.0994479    4.5895937 0.0095089689 
  909000    1.0000967    23.960348    4.5993571    1.5001412    6.0994983    4.5907475 0.0086095649 
  910500    1.0000123    23.916586    4.5975301    1.5000148    6.0975449    4.5875159  0.010014254 
  912000    1.0003386    23.950424    4.5985069    1.5005042    6.0990111     4.589481 0.0090259323 
  913500    1.0010281    23.965288    4.5963406    1.5015384    6.0978789    4.5873891 0.0089515043 
  915000    1.0014218    23.976616    4.6001866     1.502129    6.1023156    4.5912439 0.0089427142 
  916500    1.0022997    23.999072     4.599227    1.5034458    6.1026727    4.5905874 0.0086395463 
  918000   0.99961882     23.92199    4.5996226    1.4994245    6.0990471    4.5907825 0.0088400314 
  919500    1.0006261    23.963633     4.599328    1.5009353    6.1002633    4.5904878 0.0088402509 
  921000    1.0028281    24.002068    4.5985169    1.5042384    6.1027553    4.5893717 0.0091451802 
  922500    1.0026585    23.998587    4.6013503     1.503984    6.1053343    4.5915229 0.0098274008 
  924000   0.99862698    23.956785    4.5974544    1.4979367    6.0953911    4.5882688 0.0091856334 
  925500    1.0020521    23.982508    4.5972901    1.5030744    6.1003645     4.587481 0.0098091089 
  927000    1.0017151    23.957815    4.5989729    1.5025688    6.1015417    4.5896814 0.0092915272 
  928500   0.99822862    24.009729    4.5995977    1.4973392    6.0969368     4.590329 0.0092686403 
  930000   0.99828775    23.961785    4.5977899    1.4974279    6.0952178    4.5884385 0.0093513866 
  931500    1.0022925     23.93329    4.5994478    1.5034351    6.1028828    4.5900362 0.0094115411 
  933000    1.0010907    23.941783    4.6004218    1.5016323    6.1020541    4.5913101 0.0091116857 
  934500    1.0015469    23.923316    4.5975056    1.5023166    6.0998222    4.5884433 0.0090623067 
  936000   0.99943824    23.986607    4.5979359    1.4991536    6.0970895    4.5889545  0.008981446 
  937500   0.99962008    23.943605    4.5968707    1.4994264    6.0962971    4.5878171 0.0090536408 
  939000    1.0004737    23.996674    4.5986949    1.5007068    6.0994017    4.5893612 0.0093336465 
  940500   0.99999183    23.952155    4.6002576     1.499984    6.1002416    4.5908923 0.0093653109 
  942000   0.99875982    23.913157    4.5980238     1.498136    6.0961598    4.5887336 0.0092901299 
  943500    1.0009456    23.943203    4.5969969    1.5014146    6.0984115    4.5879385 0.0090584297 
  945000    1.0012943    23.966221    4.5954288    1.5019377    6.0973666    4.5864754 0.0089534923 
  946500    1.0019794    23.965681    4.5969695    1.5029653    6.0999348    4.5878192 0.0091502776 
  948000     1.000788     23.93581    4.5979145    1.5011783    6.0990928    4.5889427 0.0089718109 
  949500    1.0019276    23.986756    4.5978904    1.5028877    6.1007781    4.5893756 0.0085147809 
  951000    1.0015022     23.98027    4.5977588    1.5022495    6.1000082    4.5879791 0.0097796423 
  952500    1.0017331    23.950244    4.5959176    1.5025959    6.0985135    4.5866055 0.0093120877 
  954000   0.99945773    23.918722    4.6008959    1.4991829    6.1000787    4.5917912 0.0091047091 
  955500    1.0030483    23.959092    4.5993439    1.5045687    6.1039126    4.5903888 0.0089551368 
  957000    1.0014054     23.98417    4.5968348    1.5021044    6.0989392    4.5878079 0.0090268597 
  958500    1.0026462    23.965555    4.5991731    1.5039655    6.1031386    4.5899953 0.0091778443 
  960000     1.002156    23.963772    4.5970595    1.5032303    6.1002898     4.588204 0.0088555464 
  961500    1.0034534    23.889524    4.5966609    1.5051763    6.1018372    4.5874937 0.0091671999 
  963000    1.0010614     23.85996    4.5951572    1.5015883    6.0967455    4.5860768 0.0090803961 
  964500   0.99998452    23.926631    4.5985928     1.499973    6.0985659    4.5894495 0.0091433553 
  966000    1.0017429    23.989044    4.5966113    1.5026106    6.0992219    4.5876776 0.0089337355 
  967500    1.0015314     24.01404    4.5956691    1.5022933    6.0979624    4.5861342 0.0095348827 
  969000    1.0031036    24.017721    4.6011348    1.5046516    6.1057864    4.5912028 0.0099319955 
  970500    1.0000236    23.983115     4.599657    1.5000316    6.0996886    4.5903693 0.0092877203 
  972000   0.99797455    23.912096    4.6007975    1.4969581    6.0977556    4.5916189 0.0091786364 
  973500    1.0030229    23.950641    4.5977037    1.5045306    6.1022343    4.5887633 0.0089403975 
  975000    1.0008625     23.98547    4.5992573    1.5012901    6.1005474     4.590288 0.0089692905 
  976500    1.0007965    23.991676     4.599155     1.501191     6.100346    4.5900313 0.0091236224 
  978000    1.0002595    23.908698    4.5967002    1.5003855    6.0970857    4.5882916 0.0084085913 
  979500   0.99944757     23.94325    4.5960325    1.4991676    6.0952001    4.5864127 0.0096198606 
  981000   0.99835751    23.951044    4.5967872    1.4975325    6.0943197    4.5869526 0.0098346191 
  982500    1.0009277    24.000858    4.5970011    1.5013878    6.0983889    4.5879135 0.0090875436 
  984000    1.0015807    23.887049    4.5999049    1.5023674    6.1022723     4.590173 0.0097318662 
  985500    1.0021205    23.957158    4.5993936     1.503177    6.1025706    4.5906143  0.008779263 
  987000    1.0009916     23.96299    4.5995454    1.5014836     6.101029    4.5898219 0.0097234205 
  988500     1.003614    23.950598    4.5990395    1.5054173    6.1044568    4.5896421  0.009397377 
  990000    1.0026239    23.964272     4.596843     1.503932     6.100775    4.5876668 0.0091761881 
  991500    1.0018036    23.949581    4.5985393    1.5027016    6.1012409     4.589612 0.0089272775 
  993000    1.0020114    23.975931    4.5984445    1.5030134    6.1014579    4.5896894 0.0087550467 
  994500    1.0020498    23.962461     4.599659     1.503071      6.10273     4.590855 0.0088040549 
  996000    1.0013133    24.033298    4.5973361    1.5019662    6.0993023    4.5875239  0.009812145 
  997500   0.99895113    23.969891    4.5975903     1.498423    6.0960132    4.5885026 0.0090876545 
  999000    1.0001783    23.924357     4.599298    1.5002637    6.0995617     4.589976 0.0093219578 
 1000500    1.0020783    23.990744    4.5981286    1.5031137    6.1012422    4.5887147 0.0094139083 
 1002000    1.0006162    23.923801    4.5997808    1.5009205    6.1007013    4.5903021 0.0094787448 
 1003500    1.0006156    23.949176    4.5974426    1.5009196    6.0983622    4.5885933 0.0088492827 
 1005000   0.99840852    23.917774    4.5970414     1.497609    6.0946505    4.5883442 0.0086972042 
 1006500   0.99967742    24.020133    4.5995477    1.4995124      6.09906    4.5909114 0.0086362568 
 1008000    1.0014384    23.927646    4.5992557    1.5021538    6.1014095    4.5899175 0.0093381845 
 1009500    1.0022634    23.963987     4.597801    1.5033914    6.1011923    4.5883451 0.0094558241 
 1011000   0.99945642    23.947841    4.5976255    1.4991809    6.0968064    4.5884753 0.0091502059 
 1012500    1.0011004    24.006293    4.5987776    1.5016468    6.1004244    4.5899145 0.0088631013 
 1014000    1.0013637    23.941257    4.5993944    1.5020418    6.1014362    4.5903916 0.0090027282 
 1015500   0.99922041    23.978371    4.5973905    1.4988269    6.0962174    4.5883359 0.0090546565 
 1017000     1.000887    23.994752    4.5984267    1.5013268    6.0997535    4.5893235  0.009103174 
 1018500    1.0000936    23.925051    4.5984469    1.5001366    6.0985834    4.5893969 0.0090499477 
 1020000   0.99900906    23.969739    4.5995976    1.4985098    6.0981074    4.5902854 0.0093122002 
 1021500    1.0005773    23.922448     4.596832    1.5008623    6.0976943     4.587246 0.0095859587 
 1023000    1.0016733    23.965062    4.5991058    1.5025062     6.101612     4.590318 0.0087877739 
 1024500    1.0008349    24.034243    4.6003142    1.5012486    6.1015628    4.5905758 0.0097384321 
 1026000    1.0021027    23.885048    4.5979855    1.5031503    6.1011359    4.5884886 0.0094968794 
 1027500      1.00077    23.984117    4.5975883    1.5011512    6.0987395    4.5882581 0.0093301743 
 1029000    1.0007828    23.871463    4.5975586    1.5011705    6.0987291     4.588729 0.0088296299 
 1030500    1.0010571     23.89673    4.5990653    1.5015818    6.1006472    4.5898709 0.0091943822 
 1032000    1.0012586    23.984032    4.5980598    1.5018841    6.0999439    4.5888443 0.0092154701 
 1033500    1.0014862    23.803257    4.5995942    1.5022256    6.1018198    4.5901162 0.0094779378 
 1035000    1.0004494    23.982759    4.5988227    1.5006704     6.099493    4.5898289 0.0089937505 
 1036500     1.000311    24.017847    4.5964494    1.5004627    6.0969121    4.5874479 0.0090014899 
 1038000   0.99878867     24.05988    4.5983683    1.4981793    6.0965476     4.588944 0.0094243548 
 1039500    1.0007473     24.05796    4.5976898    1.5011172     6.098807    4.5884432 0.0092465245 
 1041000    1.0002792    23.954246    4.6001093     1.500415    6.1005243    4.5904538 0.0096554723 
 1042500    1.0008565    23.970607    4.5969458    1.5012809    6.0982268    4.5875123 0.0094335315 
 1044000   0.99834087    23.940849     4.597529    1.4975076    6.0950365    4.5879939  0.009535133 
 1045500    1.0023634    23.961967    4.5976547    1.5035413     6.101196    4.5883099 0.0093447907 
 1047000    1.0013444    24.034678    4.5968389    1.5020128    6.0988517    4.5875966 0.0092422437 
 1048500     1.001597    23.979581    4.5976172    1.5023918     6.100009    4.5883754 0.0092418436 
 1050000    1.0017164    23.981401    4.5978757    1.5025709    6.1004465    4.5886208 0.0092549193 
 1051500   0.99915401    23.856788    4.5983124    1.4987273    6.0970396    4.5895623 0.0087500639 
 1053000   0.99925218    23.914954    4.5969209    1.4988745    6.0957954     4.587677 0.0092439237 
 1054500    1.0024751    23.956484     4.600538    1.5037088    6.1042468    4.5911593 0.0093787237 
 1056000    1.0025435    23.989232    4.5985836    1.5038115    6.1023951    4.5893307 0.0092528204 
 1057500     1.000223    23.891495    4.5972028    1.5003307    6.0975335    4.5876277  0.009575167 
 1059000    1.0000488    23.938939    4.5979516    1.5000694    6.0980211    4.5890995 0.0088521368 
 1060500    1.0005855    24.013513    4.5978558    1.5008745    6.0987303    4.5884818 0.0093740384 
 1062000   0.99794838      23.9281    4.5995202    1.4969188     6.096439     4.589727 0.0097931269 
 1063500    1.0001325    23.955951    4.5982722     1.500195    6.0984671    4.5889435 0.0093286895 
 1065000    0.9984037     23.97872    4.5963789    1.4976018    6.0939807    4.5872597 0.0091192402 
 1066500   0.99897401    23.903723    4.5966396    1.4984573    6.0950968    4.5869676 0.0096719369 
 1068000    1.0007082    23.944781    4.5959533    1.5010585    6.0970118    4.5864603 0.0094930439 
 1069500    1.0013373    23.931879    4.6000674    1.5020022    6.1020696    4.5905311 0.0095362843 
 1071000    1.0014762    24.005064    4.6003209    1.5022105    6.1025314    4.5912666 0.0090543063 
 1072500    1.0018233    23.952435     4.598907    1.5027312    6.1016382    4.5891961 0.0097109001 
 1074000    1.0020771    23.943273      4.59737    1.5031119    6.1004819    4.5883244 0.0090456642 
 1075500   0.99879564    23.915335    4.5989859    1.4981897    6.0971756    4.5905085  0.008477439 
 1077000    1.0002171    23.965612    4.5964686     1.500322    6.0967906    4.5871185  0.009350085 
 1078500    1.0008669    23.924512    4.6012163    1.5012966    6.1025129    4.5915394 0.0096768996 
 1080000   0.99981519    23.997193    4.5976788     1.499719    6.0973978    4.5885153 0.0091634749 
 1081500    1.0000147    23.961318    4.5971273    1.5000183    6.0971456    4.5877515 0.0093758318 
 1083000    1.0009843    23.956385    4.5962572    1.5014727    6.0977298    4.5869455 0.0093116718 
 1084500    1.0010967    23.954578    4.5995808    1.5016413    6.1012221    4.5908632 0.0087176433 
 1086000    1.0013222    23.978335    4.5972208    1.5019795    6.0992004    4.5880824 0.0091384507 
 1087500    1.0034715    23.975842    4.5993735    1.5052035     6.104577    4.5898185 0.0095550111 
 1089000    1.0010212    23.983278    4.5978769    1.5015281     6.099405    4.5887311 0.0091458426 
 1090500   0.99861788    23.942596    4.5982345    1.4979231    6.0961576    4.5888641  0.009370368 
 1092000   0.99885777    23.953491    4.5987542    1.4982829    6.0970371      4.58968 0.0090742622 
 1093500    1.0011603    23.964764    4.5984765    1.5017367    6.1002132    4.5887844 0.0096920368 
 1095000    1.0024164    23.959488    4.5982616    1.5036208    6.1018823    4.5883314 0.0099301268 
 1096500    1.0029508    23.962702    4.5989875    1.5044225      6.10341    4.5893611 0.0096264938 
 1098000    1.0001658    23.876856    4.5990309    1.5002449    6.0992758    4.5898665 0.0091644313 
 1099500     1.002345    23.942471    4.5979288    1.5035137    6.1014425    4.5892508  0.008678052 
 1101000    1.0028686    23.946379    4.5992202    1.5042991    6.1035193    4.5902896  0.008930583 
 1102500    1.0007593    23.921062    4.5977793    1.5011352    6.0989145    4.5885217  0.009257555 
 1104000    1.0009965    23.980436    4.5997027     1.501491    6.1011937    4.5907365 0.0089661954 
 1105500   0.99797466    23.950784    4.5983901    1.4969582    6.0953483    4.5887565 0.0096335823 
 1107000    1.0003048    23.931676    4.5979087    1.5004535    6.0983622    4.5882595 0.0096491609 
 1108500   0.99959541     23.91746      4.59889    1.4993894    6.0982794      4.58955  0.009340035 
 1110000    1.0013415     24.01499    4.5973949    1.5020085    6.0994034    4.5875232 0.0098717356 
 1111500    1.0018497    23.927824    4.5984116    1.5027708    6.1011824    4.5888203 0.0095913352 
 1113000    1.0008068    23.909833    4.5972011    1.5012065    6.0984076    4.5882169 0.0089842026 
 1114500    1.0014083    23.979041    4.5972442    1.5021086    6.0993529    4.5881776 0.0090666673 
 1116000    1.0002902    23.971414    4.5997596    1.5004315    6.1001911    4.5909884 0.0087711833 
 1117500    1.0010211    23.939754     4.598165     1.501528    6.0996929    4.5886664 0.0094986091 
 1119000    1.0036118    23.924121    4.5998958     1.505414    6.1053098    4.5917124 0.0081834692 
 1120500    1.0014999    23.968262    4.5963856    1.5022462    6.0986318    4.5870042 0.0093813877 
 1122000    1.0020996    24.009949     4.601192    1.5031456    6.1043376     4.591678 0.0095139604 
 1123500    1.0018948    23.945148    4.5991625    1.5028385     6.102001     4.589638 0.0095244814 
 1125000    1.0009919    23.971986    4.5972365    1.5014841    6.0987206     4.588483 0.0087535074 
 1126500    1.0009311     23.93008    4.5980851    1.5013928     6.099478    4.5891122 0.0089729662 
 1128000    1.0008488    23.886833    4.5984461    1.5012695    6.0997155    4.5888358 0.0096102361 
 1129500    1.0000125    23.961595    4.5976653     1.500015    6.0976803    4.5882407  0.009424568 
 1131000   0.99812661    24.011704    4.5987838    1.4971862      6.09597    4.5896059 0.0091779137 
 1132500    1.0025396    23.950403    4.5977885    1.5038056    6.1015941     4.588502 0.0092864637 
 1134000    1.0012364    24.005398    4.5976609    1.5018508    6.0995117    4.5884558 0.0092051978 
 1135500   0.99741426    23.917567    4.5986618    1.4961177    6.0947794    4.5895298 0.0091319689 
 1137000     1.001059    23.970335    4.5977746    1.5015848    6.0993595    4.5882706 0.0095040456 
 1138500    1.0008294      23.9299     4.597454    1.5012403    6.0986943    4.5879844 0.0094695759 
 1140000    0.9980667    23.963956    4.5987472    1.4970963    6.0958435    4.5896653 0.0090819653 
 1141500    1.0032304    23.995239      4.59916    1.5048419    6.1040019    4.5896168 0.0095432255 
 1143000    1.0007577    23.960292    4.5987938    1.5011328    6.0999267    4.5892928 0.0095010487 
 1144500   0.99885302    23.939304    4.5989736    1.4982758    6.0972494     4.589471 0.0095025117 
 1146000   0.99881225    23.977631    4.6006696    1.4982146    6.0988843    4.5910668 0.0096027964 
 1147500    1.0022959    23.934211    4.5980076    1.5034401    6.1014477     4.589038 0.0089696134 
 1149000    1.0013512    23.996319    4.5969166    1.5020231    6.0989396    4.5877276 0.0091889115 
 1150500    1.0008581     23.97719    4.5985404    1.5012834    6.0998237    4.5890056 0.0095347648 
 1152000     1.001334    24.038603    4.5993486    1.5019973    6.1013459    4.5905162 0.0088324105 
 1153500    1.0018116    23.963069    4.5967676    1.5027136    6.0994813    4.5878445 0.0089231345 
 1155000    1.0007312    24.028581     4.596642     1.501093     6.097735    4.5877266 0.0089154163 
 1156500    1.0000583     24.00623    4.5997593    1.5000837     6.099843    4.5901041 0.0096551751 
 1158000   0.99874404    23.969392    4.5982302    1.4981123    6.0963425    4.5891052 0.0091250032 
 1159500     1.001193    23.927422    4.5973656    1.5017858    6.0991514    4.5880519 0.0093136893 
 1161000    1.0000033    23.956095    4.5952297    1.5000013     6.095231    4.5863484  0.008881388 
 1162500    1.0023899    23.962935     4.600128    1.5035811    6.1037091    4.5904634  0.009664664 
 1164000    1.0013542    23.977611    4.5971852    1.5020275    6.0992126    4.5881035 0.0090816478 
 1165500    1.0015994    23.990259    4.5964535    1.5023954    6.0988489    4.5874855 0.0089679802 
 1167000    1.0012474    23.960447    4.5987039    1.5018673    6.1005712    4.5893011  0.009402765 
 1168500    1.0008902    23.897073    4.5980992    1.5013315    6.0994307    4.5889032 0.0091960797 
 1170000    1.0001423    23.931385    4.6008726    1.5002098    6.1010824    4.5911002 0.0097724031 
 1171500    1.0006444    23.934951    4.5977417    1.5009628    6.0987045    4.5887445 0.0089971778 
 1173000    1.0002809    23.970214    4.5977047    1.5004176    6.0981223    4.5885361 0.0091685908 
 1174500    1.0009167    24.035787    4.5992559    1.5013714    6.1006272    4.5896791 0.0095767783 
 1176000    1.0013986    23.951433    4.5977695    1.5020941    6.0998636    4.5884789 0.0092905701 
 1177500      1.00077    23.967088     4.599359    1.5011513    6.1005103    4.5901025 0.0092565497 
 1179000    1.0007296    23.905568    4.5985196    1.5010907    6.0996102    4.5892364 0.0092832013 
 1180500    1.0004028    23.905401    4.5966619    1.5006005    6.0972624    4.5871857 0.0094761686 
 1182000    1.0017786    23.988386    4.6006509    1.5026642     6.103315    4.5913049 0.0093459784 
 1183500   0.99965847    24.029362    4.6003284     1.499484    6.0998124    4.5909984 0.0093299626 
 1185000   0.99990563    23.910454    4.5984732    1.4998547    6.0983279    4.5891569 0.0093163077 
 1186500    1.0007707    23.959936    4.5995051    1.5011523    6.1006574    4.5898174 0.0096877431 
 1188000    1.0005673    23.961668    4.6004807    1.5008471    6.1013279    4.5907236 0.0097571545 
 1189500   0.99872453    23.937151    4.5967942    1.4980831    6.0948773    4.5877797  0.009014497 
 1191000    1.0001116    23.912174    4.5976056    1.5001637    6.0977693    4.5883872 0.0092183889 
 1192500     1.000589    24.005646     4.597049    1.5008797    6.0979287    4.5885774  0.008471618 
 1194000    1.0013028    23.936324    4.5987292    1.5019505    6.1006797    4.5890833 0.0096459429 
 1195500    1.0024226    23.953668    4.5981102    1.5036301    6.1017403    4.5884957 0.0096144638 
 1197000   0.99789653    23.811174    4.5961637    1.4968411    6.0930047     4.587001 0.0091626223 
 1198500    1.0015777    23.924544    4.5975953    1.5023628    6.0999581    4.5881684 0.0094268357 
 1200000   0.99947463    23.900025    4.5959486    1.4992082    6.0951568    4.5863638 0.0095848259 
 1201500   0.99859836    23.954325    4.5970141    1.4978938    6.0949079    4.5872622 0.0097518842 
 1203000    1.0014278    24.011458    4.5969194    1.5021379    6.0990572    4.5880301 0.0088892848 
 1204500    1.0030835    23.929144    4.5977711    1.5046215    6.1023926    4.5884893 0.0092817575 
 1206000    1.0016847    24.018513    4.5978796    1.5025232    6.1004029    4.5882938  0.009585811 
 1207500   0.99931107    23.945522    4.5936076    1.4989629    6.0925705    4.5846741 0.0089335571 
 1209000    1.0029981    23.963636    4.6009201    1.5044934    6.1054135    4.5920415 0.0088786507 
 1210500   0.99981938    23.932648    4.5983681    1.4997253    6.0980935    4.5886868 0.0096813833 
 1212000   0.99857328     23.95859     4.597089    1.4978562    6.0949452    4.5882632 0.0088258495 
 1213500     1.002067    23.969639    4.5955149    1.5030967    6.0986117    4.5866005  0.008914466 
 1215000    1.0034424    23.889249    4.5986961    1.5051599     6.103856    4.5893288 0.0093673528 
 1216500    1.0010241    23.940013    4.5968274    1.5015324    6.0983599    4.5873011 0.0095263065 
 1218000   0.99888198    23.878756    4.5991938    1.4983192    6.0975131    4.5894579 0.0097359639 
 1219500    1.0005784     23.93074    4.5972663    1.5008638    6.0981301    4.5882659 0.0090003345 
 1221000    1.0003236    23.918814    4.5977851    1.5004817    6.0982668    4.5883256 0.0094594808 
 1222500    1.0018747    23.982778    4.5946843    1.5028084    6.0974926    4.5852734 0.0094108222 
 1224000   0.99997705    23.944333    4.5978918    1.4999618    6.0978536     4.588878 0.0090137988 
 1225500     1.000123    23.930938    4.5985533    1.5001807     6.098734    4.5889609 0.0095924545 
 1227000    1.0010004    23.868694    4.5968454    1.5014968    6.0983423    4.5882241 0.0086213815 
 1228500    1.0009793    23.935746    4.5976126    1.5014653    6.0990778    4.5881013 0.0095112579 
 1230000    1.0017222    23.870321    4.5968837    1.5025796    6.0994633    4.5876945 0.0091892189 
 1231500    1.0030553    24.045571    4.5982088    1.5045792     6.102788    4.5887411 0.0094677249 
 1233000   0.99904394     23.97294    4.5978347    1.4985622    6.0963969    4.5883933 0.0094414161 
 1234500    1.0050168    23.943524    4.5962635    1.5075214    6.1037849    4.5866076 0.0096558694 
 1236000     1.000271    23.886613    4.5973819    1.5004028    6.0977847    4.5881897 0.0091921729 
 1237500    1.0015538    23.897944    4.5978516    1.5023269    6.1001785     4.587949 0.0099025643 
 1239000    1.0018445    23.978966    4.5976817    1.5027629    6.1004446    4.5887197 0.0089620352 
 1240500    1.0022855    23.972592    4.5985861    1.5034246    6.1020107    4.5892091 0.0093769696 
 1242000   0.99904842    23.926324    4.5996753    1.4985689    6.0982442     4.591073 0.0086023599 
 1243500    1.0008118    23.964379    4.5958767    1.5012139    6.0970905    4.5869404 0.0089362898 
 1245000   0.99804836    23.875617    4.5981286    1.4970688    6.0951975     4.589135  0.008993688 
 1246500   0.99924817    23.872515    4.5971197    1.4988685    6.0959882    4.5876679 0.0094517783 
 1248000     1.001275      23.9121    4.5974377    1.5019087    6.0993464    4.5878322  0.009605539 
 1249500      1.00383    23.942984    4.5957448    1.5057413    6.1014861    4.5874493 0.0082954928 
 1251000     1.002817    23.952248     4.597398    1.5042218    6.1016198    4.5886266 0.0087713956 
 1252500    1.0013808    23.996756    4.5964177    1.5020674    6.0984851    4.5871454 0.0092722871 
 1254000    1.0017005    23.991064    4.5971074    1.5025471    6.0996545    4.5883451 0.0087623255 
 1255500    1.0019695     23.99862    4.5983442    1.5029505    6.1012948    4.5889909 0.0093533375 
 1257000    1.0019105    23.896873    4.5987872     1.502862    6.1016492    4.5892445  0.009542661 
 1258500    1.0012187    23.908841    4.6003117    1.5018243     6.102136    4.5910179 0.0092938361 
 1260000    1.0016305    23.884294    4.5989277    1.5024419    6.1013696    4.5893085  0.009619169 
 1261500    1.0005834    23.908673    4.5983103    1.5008714    6.0991817    4.5895573 0.0087530519 
 1263000   0.99936153    23.930313     4.596349    1.4990385    6.0953876    4.5870739 0.0092751149 
 1264500    1.0003084    23.944833    4.5971209    1.5004589    6.0975798    4.5876533 0.0094675727 
 1266000     1.000201    24.003871    4.5982228    1.5002977    6.0985206    4.5891123 0.0091105325 
 1267500    1.0008072     23.89525    4.5978924    1.5012071    6.0990995    4.5884475 0.0094448971 
 1269000      0.99913     23.92364    4.5983831    1.4986913    6.0970743    4.5892644 0.0091186127 
 1270500    1.0020695    23.984543    4.5991499    1.5031005    6.1022504    4.5898871 0.0092627605 
 1272000   0.99938636    24.010944    4.5990273    1.4990758    6.0981031    4.5898549  0.009172364 
 1273500    1.0022364    23.963343    4.5981894    1.5033509    6.1015403    4.5891518 0.0090375617 
 1275000    1.0016661    23.956399    4.5997575    1.5024954    6.1022529    4.5908206 0.0089368401 
 1276500    1.0021371     24.01021    4.5969168     1.503202    6.1001187    4.5876758 0.0092409466 
 1278000    1.0005604    23.957312    4.5984983    1.5008369    6.0993352    4.5891874 0.0093109355 
 1279500    1.0011829    23.927931    4.5978147    1.5017706    6.0995854    4.5885201 0.0092946228 
 1281000    1.0021952    23.971957    4.5986606    1.5032891    6.1019497    4.5891086 0.0095520311 
 1282500    1.0022017    23.980085    4.5990635    1.5032988    6.1023623    4.5895841 0.0094794033 
 1284000    0.9984869    24.000183    4.5978459    1.4977266    6.0955725    4.5884357 0.0094101764 
 1285500   0.99956545    24.037837    4.5974002    1.4993444    6.0967446    4.5887153 0.0086848602 
 1287000    1.0000454    23.980788    4.5971131    1.5000644    6.0971775    4.5878019 0.0093112332 
 1288500    1.0009727    23.899645    4.6001702    1.5014553    6.1016255    4.5913282 0.0088420355 
 1290000    1.0022472    23.927973     4.594974    1.5033671    6.0983411    4.5861558 0.0088181991 
 1291500   0.99989056    23.964577    4.5987572    1.4998321    6.0985893    4.5893129 0.0094443443 
 1293000    1.0015323    23.882201    4.5967994    1.5022947    6.0990941    4.5877178 0.0090815521 
 1294500   0.99960189    23.911852    4.5991313    1.4993991    6.0985304    4.5903276 0.0088037674 
 1296000    1.0011937    24.001817    4.5993879    1.5017868    6.1011747     4.590306 0.0090818789 
 1297500    1.0002137    23.986758    4.5983357    1.5003169    6.0986526    4.5890173 0.0093184255 
 1299000    1.0002461    23.944149    4.5979269    1.5003653    6.0982922    4.5886003 0.0093265921 
 1300500   0.99713842     23.96332    4.5965969    1.4957039    6.0923008    4.5876158 0.0089811365 
 1302000   0.99758057    23.960276    4.5974603    1.4963671    6.0938275    4.5879839 0.0094763833 
 1303500   0.99968434    23.973646       4.5974    1.4995228    6.0969228    4.5878209 0.0095791164 
 1305000   0.99971606    23.987107     4.600028    1.4995703    6.0995983    4.5908636 0.0091644034 
 1306500    1.0024422    23.901143    4.5959094    1.5036596     6.099569    4.5862058 0.0097036677 
 1308000    1.0037355    23.954369    4.5974823    1.5055994    6.1030818    4.5887809 0.0087013877 
 1309500    1.0005681    23.905089    4.5973254    1.5008483    6.0981737    4.5880864 0.0092389667 
 1311000    1.0012974    23.925612    4.5985328    1.5019424    6.1004751    4.5894009 0.0091318973 
 1312500    1.0022039    23.956943    4.5983225    1.5033021    6.1016245     4.589189 0.0091334541 
 1314000   0.99826889    23.946802    4.5985645    1.4973996    6.0959641    4.5895674 0.0089971025 
 1315500     1.003199    23.935451    4.5991926    1.5047947    6.1039874    4.5900066 0.0091860171 
 1317000    1.0019092    23.972962    4.5982908    1.5028601    6.1011509    4.5893235 0.0089673672 
 1318500    1.0011516     23.88792    4.5979485    1.5017237    6.0996722    4.5884339 0.0095146465 
 1320000   0.99947451    24.007267    4.5998605     1.499208    6.0990686    4.5902289 0.0096316849 
 1321500    1.0000506    23.952901    4.5987301    1.5000721    6.0988022    4.5894597 0.0092704093 
 1323000    1.0003383    23.993703    4.5983951    1.5005038    6.0988988      4.58917 0.0092251136 
 1324500    1.0008716    23.949439    4.5987301    1.5013036    6.1000338    4.5891382 0.0095919719 
 1326000    1.0028694    23.954399    4.5970548    1.5043003    6.1013551    4.5876079 0.0094468657 
 1327500   0.99928272    23.928558    4.5984999    1.4989203    6.0974202    4.5897145 0.0087853837 
 1329000     1.000898    23.981814     4.598475    1.5013433    6.0998183     4.589662 0.0088129727 
 1330500   0.99987729    23.959802    4.5981651    1.4998122    6.0979773     4.588952  0.009213097 
 1332000    1.0008568    23.891182    4.5986795    1.5012814    6.0999609    4.5892831 0.0093964284 
 1333500     1.001674    24.013425    4.5984033    1.5025072    6.1009105    4.5894281 0.0089752013 
 1335000    1.0022031    23.905866    4.5972387    1.5033009    6.1005396    4.5876505 0.0095881765 
 1336500    1.0006705    23.934372    4.5953059     1.501002    6.0963079    4.5865621 0.0087437469 
 1338000     1.000356    23.920065    4.5948417    1.5005303    6.0953719    4.5856119 0.0092297863 
 1339500    1.0016852    23.931359    4.5970043    1.5025241    6.0995284    4.5876786 0.0093256603 
 1341000    1.0020849    23.969045     4.597034    1.5031236    6.1001577    4.5875213 0.0095127217 
 1342500    1.0020857    23.936494    4.5985863    1.5031247    6.1017111    4.5895124 0.0090739312 
 1344000    1.0021234    23.910227    4.5986992    1.5031813    6.1018805    4.5891623  0.009536903 
 1345500    1.0002007    23.892131    4.5965019    1.5002973    6.0967991    4.5870923 0.0094095128 
 1347000   0.99887135    23.880551    4.5966073    1.4983033    6.0949105    4.5873182 0.0092890782 
 1348500   0.99962163    23.960907     4.597466    1.4994287    6.0968947    4.5880323  0.009433663 
 1350000    1.0023736    24.006274    4.6000146    1.5035566    6.1035712    4.5903595 0.0096550577 
 1351500   0.99865476    24.025053    4.5985706    1.4979784     6.096549    4.5890816 0.0094889825 
 1353000   0.99946666     23.90343      4.60027    1.4991962    6.0994662    4.5912762 0.0089938057 
 1354500    1.0025116    23.919074    4.5954186    1.5037636    6.0991822    4.5867345 0.0086840756 
 1356000    0.9996847    23.970546    4.5982857    1.4995233     6.097809    4.5889484 0.0093373272 
 1357500    1.0014539    23.950791    4.5984055    1.5021771    6.1005825    4.5893575 0.0090479216 
 1359000    1.0024469    23.989494     4.597365    1.5036666    6.1010316    4.5878729 0.0094921273 
 1360500    1.0017916    23.944644    4.5956692    1.5026836    6.0983528    4.5862699 0.0093993081 
 1362000    1.0038834    23.962808     4.596893    1.5058213    6.1027144    4.5878539 0.0090391322 
 1363500   0.99921885    23.963975    4.6008674    1.4988245    6.0996919    4.5913886 0.0094787737 
 1365000   0.99981815    23.996026    4.5940929    1.4997235    6.0938164    4.5856239 0.0084690426 
 1366500    1.0014165    24.015565    4.5989561     1.502121    6.1010771    4.5896519 0.0093042207 
 1368000   0.99873381    23.893927    4.5979726     1.498097    6.0960695     4.588629 0.0093436175 
 1369500   0.99984491    24.038365    4.6018321    1.4997636    6.1015957    4.5920072 0.0098249189 
 1371000    1.0018306    23.867392    4.5977088    1.5027421    6.1004509    4.5887306 0.0089782479 
 1372500    1.0013131    23.968237    4.5977478    1.5019659    6.0997137    4.5885931 0.0091546428 
 1374000    1.0000976    23.925781    4.5984947    1.5001426    6.0986374    4.5897604 0.0087342986 
 1375500    1.0001915     23.97193    4.5970266    1.5002836    6.0973102    4.5878837   0.00914295 
 1377000    1.0015038    23.945089    4.5975041     1.502252    6.0997561    4.5880956 0.0094085018 
 1378500     1.000044    23.995875      4.59758    1.5000622    6.0976422    4.5884067 0.0091732782 
 1380000    1.0018011    23.859498    4.5989906     1.502698    6.1016885    4.5899362 0.0090544117 
 1381500    1.0021471    23.952342    4.5981304    1.5032169    6.1013473    4.5888285  0.009301883 
 1383000   0.99943554    23.892845    4.5959511    1.4991496    6.0951007    4.5871746 0.0087765118 
 1384500    1.0009277    23.981452    4.5952075    1.5013879    6.0965954    4.5857159 0.0094915727 
 1386000    1.0018684     23.91944    4.5984816    1.5027988    6.1012804    4.5891093 0.0093722564 
 1387500    1.0010608    23.947506    4.5966559    1.5015874    6.0982434    4.5875941 0.0090618861 
 1389000    1.0010085    23.960583    4.5964562     1.501509    6.0979652    4.5875596 0.0088966698 
 1390500    1.0006957     23.95994    4.5966576    1.5010398    6.0976974    4.5873834 0.0092741352 
 1392000    1.0009252    23.983742    4.5971371    1.5013841    6.0985212    4.5874806 0.0096565635 
 1393500   0.99968117    24.076598    4.5986105     1.499518    6.0981286    4.5890085 0.0096020124 
 1395000   0.99967711    23.984644    4.5986968    1.4995119    6.0982088    4.5897151 0.0089817549 
 1396500    1.0011617    23.909338    4.5974004    1.5017387    6.0991392    4.5878652 0.0095352025 
 1398000    1.0019474    23.982852    4.5975099    1.5029173    6.1004272    4.5889959 0.0085140168 
 1399500    0.9993387    23.902907    4.5977175    1.4990043    6.0967218     4.589056  0.008661529 
 1401000   0.99868539    23.931746    4.5972855    1.4980243    6.0953098    4.5881661 0.0091194415 
 1402500    1.0011227    23.913658    4.5968606    1.5016802    6.0985408    4.5876322 0.0092283759 
 1404000    1.0017069    23.977853    4.5961382    1.5025566    6.0986948    4.5870781 0.0090601064 
 1405500    1.0023268    23.913884    4.5972989    1.5034864    6.1007854    4.5884521 0.0088468922 
 1407000   0.99989121    23.908473    4.5988207    1.4998331    6.0986537    4.5897779 0.0090427698 
 1408500    1.0008852    24.042384    4.5991896     1.501324    6.1005137    4.5906228 0.0085668412 
 1410000    1.0026324    24.041305    4.5950502    1.5039449    6.0989951    4.5860297 0.0090204972 
 1411500    1.0010157    23.999798    4.5983421    1.5015198    6.0998618    4.5891647 0.0091773717 
 1413000    1.0000064    23.946027    4.5972289    1.5000058    6.0972347    4.5878977 0.0093311307 
 1414500     1.000792    23.992214     4.596813    1.5011842    6.0979972    4.5873533  0.009459702 
 1416000   0.99998056    23.895777    4.5979971    1.4999671    6.0979642    4.5887742 0.0092229013 
 1417500    0.9995757     23.93657    4.5995432    1.4993598     6.098903    4.5901475 0.0093957609 
 1419000   0.99967103    24.006526    4.5944027    1.4995028    6.0939055    4.5855267 0.0088760732 
 1420500    1.0007426    23.974451    4.5984087    1.5011101    6.0995188    4.5895359 0.0088728702 
 1422000    1.0010912    23.912353    4.5972988    1.5016331    6.0989319    4.5877588 0.0095400147 
 1423500    1.0010479     24.04248    4.5992042    1.5015681    6.1007723    4.5901544 0.0090497585 
 1425000    1.0011475    23.915893    4.5999363    1.5017175    6.1016538    4.5908133 0.0091230349 
 1426500     1.001075    23.992948    4.5977193    1.5016088    6.0993281    4.5876038  0.010115486 
 1428000    1.0017717    23.951234    4.5970345    1.5026538    6.0996884     4.587534 0.0095005407 
 1429500    1.0000689    23.966203    4.5984838    1.5000996    6.0985834    4.5897457 0.0087381235 
 1431000    1.0014592    23.928953      4.59933    1.5021851    6.1015151    4.5900617 0.0092683172 
 1432500    1.0030503    24.029604    4.5988858    1.5045717    6.1034576    4.5900197 0.0088661374 
 1434000    1.0048492    23.992867    4.5974822    1.5072701    6.1047523    4.5880881 0.0093941301 
 1435500    1.0023273    23.994115    4.5972272    1.5034871    6.1007144    4.5875925 0.0096347653 
 1437000    1.0024981    23.946703    4.5968791    1.5037434    6.1006225    4.5874511 0.0094280144 
 1438500   0.99903612    23.891642    4.5980014    1.4985504    6.0965518    4.5884507 0.0095506983 
 1440000    1.0005655    23.986676    4.5973705    1.5008445     6.098215     4.588624 0.0087464755 
 1441500   0.99934804     24.01501    4.5972985    1.4990183    6.0963168    4.5879967 0.0093017339 
 1443000    1.0002432    23.993075    4.5946998     1.500361    6.0950608     4.585496 0.0092038148 
 1444500   0.99982819    23.974862    4.5976186    1.4997385    6.0973571    4.5886205 0.0089980437 
 1446000    1.0019225    23.909974    4.5969714      1.50288    6.0998514    4.5877735 0.0091978697 
 1447500     1.000442     23.96517    4.5976992    1.5006592    6.0983584    4.5885071 0.0091921357 
 1449000    1.0017851    23.972602    4.5982819    1.5026739    6.1009559    4.5893915  0.008890394 
 1450500    1.0006647    23.907828      4.59789    1.5009933    6.0988833    4.5887858 0.0091041839 
 1452000    1.0021646    23.934994    4.5990261    1.5032432    6.1022693    4.5902182 0.0088079225 
 1453500    1.0004162    23.944834    4.6000894    1.5006206    6.1007101     4.590603 0.0094864261 
 1455000    1.0042817     24.01977    4.5956042    1.5064187    6.1020229    4.5862565 0.0093476091 
 1456500    1.0001468    23.973685    4.5954924    1.5002165    6.0957088    4.5863858 0.0091066018 
 1458000   0.99998025    23.993972    4.5952591    1.4999666    6.0952257    4.5863525 0.0089065847 
 1459500    1.0023944    23.940868    4.5978105    1.5035878    6.1013983     4.588248 0.0095625299 
 1461000    1.0023422     23.94974    4.5985867    1.5035096    6.1020963     4.589767 0.0088196857 
 1462500   0.99903916    23.943969    4.5984822     1.498555    6.0970372    4.5891583 0.0093238364 
 1464000    1.0004243    23.914443    4.5970016    1.5006327    6.0976343    4.5881887 0.0088128559 
 1465500    1.0010755    23.905408    4.5963476    1.5016094     6.097957    4.5868715 0.0094760399 
 1467000    1.0010887    23.985133    4.5980755    1.5016293    6.0997048     4.588405 0.0096704912 
 1468500    1.0040099    24.040038    4.5946493     1.506011    6.1006603    4.5852222 0.0094270823 
 1470000   0.99875451    24.040747    4.5971865     1.498128    6.0953145    4.5881068   0.00907964 
 1471500   0.99985569     23.97475    4.5973065    1.4997798    6.0970863    4.5879886 0.0093178702 
 1473000    1.0000237    23.951227    4.5974875    1.5000317    6.0975193    4.5880738 0.0094137122 
 1474500   0.99852407    23.951616    4.5955441    1.4977824    6.0933265    4.5864977 0.0090463654 
 1476000    1.0019477    23.972278    4.5970076    1.5029178    6.0999253    4.5872415 0.0097661095 
 1477500    1.0006741      23.8664    4.5968242    1.5010074    6.0978315    4.5876445 0.0091796189 
 1479000    1.0018933    23.946443    4.5984013    1.5028362    6.1012375     4.589376 0.0090253391 
 1480500    1.0024155    23.960924    4.5985324    1.5036195    6.1021519    4.5890887 0.0094436294 
 1482000   0.99992084    24.026727    4.5980648    1.4998775    6.0979423    4.5886721    0.0093927 
 1483500   0.99934667    23.929333    4.5972658    1.4990163     6.096282    4.5881305 0.0091352337 
 1485000    1.0016298    23.931327     4.600271    1.5024409    6.1027119    4.5901906  0.010080467 
 1486500   0.99877367    23.930131    4.5985716    1.4981568    6.0967283    4.5892966  0.009275001 
 1488000   0.99983897    23.964669    4.5967121    1.4997547    6.0964668    4.5876781 0.0090340307 
 1489500    1.0003663    24.023552    4.5986251    1.5005458    6.0991708    4.5891136 0.0095115049 
 1491000    1.0017639    23.990577    4.5989724     1.502642    6.1016144    4.5893156 0.0096567591 
 1492500    1.0025045    23.967259     4.596583    1.5037529    6.1003359     4.587578 0.0090050085 
 1494000    1.0036396    23.982117    4.5980234    1.5054557    6.1034791    4.5888506 0.0091727621 
 1495500   0.99844309    23.931945    4.5992631    1.4976609    6.0969239    4.5899222  0.009340907 
 1497000    1.0026682    23.884254    4.5996544    1.5039986     6.103653    4.5900309 0.0096235575 
 1498500    1.0013329    23.980784    4.5986945    1.5019957    6.1006902    4.5894602 0.0092343542 
 1500000   0.99981931    23.943126    4.5955846    1.4997252    6.0953098    4.5867682 0.0088164414 
Loop time of 45421 on 24 procs for 1500000 steps with 400312 atoms

Performance: 5706.617 tau/day, 33.024 timesteps/s
98.7% CPU use with 24 MPI tasks x no OpenMP threads

MPI task timing breakdown:
Section |  min time  |  avg time  |  max time  |%varavg| %total
---------------------------------------------------------------
Pair    | 37025      | 38327      | 39573      | 489.2 | 84.38
Bond    | 1.2562     | 12.285     | 52.848     | 423.0 |  0.03
Neigh   | 1783       | 1784.3     | 1785.3     |   1.8 |  3.93
Comm    | 2833.5     | 4066.7     | 5358.8     |1493.3 |  8.95
Output  | 0.11575    | 0.13638    | 0.1644     |   3.9 |  0.00
Modify  | 418.33     | 429.29     | 442.43     |  32.4 |  0.95
Other   |            | 801.2      |            |       |  1.76

Nlocal:    16679.7 ave 16897 max 16504 min
Histogram: 2 8 2 0 0 1 2 6 2 1
Nghost:    23812.9 ave 23955 max 23658 min
Histogram: 3 4 2 3 0 0 1 4 2 5
Neighs:    2.82329e+06 ave 2.91787e+06 max 2.7494e+06 min
Histogram: 8 4 0 0 0 0 2 4 5 1

Total # of neighbors = 67758862
Ave neighs/atom = 169.265
Ave special neighs/atom = 0.00701453
Neighbor list builds = 15188
Dangerous builds = 0
reset_timestep                  0

# Production
group 				all type 1 2 3 4 5
400312 atoms in group all
group                           aroma_ring type 3
168 atoms in group aroma_ring
group                           asfalteno type 3 4 5
312 atoms in group asfalteno

#MSD computation
compute				chunk_aroma_ring aroma_ring chunk/atom molecule nchunk once ids once compress yes
compute				com_aroma_ring aroma_ring com/chunk chunk_aroma_ring
fix				2 aroma_ring ave/time 1 6000 6000 c_com_aroma_ring[*] mode vector file pos_CoM.out #these positions are already unwrapped

# Stress computation
compute				peratom asfalteno stress/atom NULL
compute				p asfalteno reduce sum c_peratom[4] c_peratom[5] c_peratom[6]   #  Pxy, Pxz, Pyz
variable			n_total equal count(all)
variable			v equal vol
variable			n_asfal equal count(asfalteno)
variable 			conversion equal ${v}/${n_total}*${n_asfal} # As stress/atom is in Pressure*volume units, I need to fix it by dividing the quantities by the volume of atoms in the group
variable 			conversion equal 133411.265731101/${n_total}*${n_asfal} 
variable 			conversion equal 133411.265731101/400312*${n_asfal} 
variable 			conversion equal 133411.265731101/400312*312 
variable 			pxy equal -c_p[1]/${conversion}
variable 			pxy equal -c_p[1]/103.979683117427
variable 			pxz equal -c_p[2]/${conversion}
variable 			pxz equal -c_p[2]/103.979683117427
variable 			pyz equal -c_p[3]/${conversion}
variable 			pyz equal -c_p[3]/103.979683117427
fix				3 all ave/time 1 10 10 v_pxy v_pxz v_pyz file stress.dat

#IFT computation
				#converter KbT/rc² para mN/m
variable			kb equal 1.38064852E-23  # J/K
variable			temperature equal 298 # K
variable			cuttof_radius equal 6.74e-10 # m
variable			conversion0 equal ${kb}*${temperature}/${cuttof_radius}/${cuttof_radius} # N/m
variable			conversion0 equal 1.38064852e-23*${temperature}/${cuttof_radius}/${cuttof_radius} 
variable			conversion0 equal 1.38064852e-23*298/${cuttof_radius}/${cuttof_radius} 
variable			conversion0 equal 1.38064852e-23*298/6.74e-10/${cuttof_radius} 
variable			conversion0 equal 1.38064852e-23*298/6.74e-10/6.74e-10 
variable			conversion equal ${conversion0}*1000 # mN/m
variable			conversion equal 0.00905690062781216*1000 
variable			number_interfaces equal 2 # só tem uma molécula de asfal, nessa concentração

variable			Nfreq	equal ${thermo_prod}
variable			Nfreq	equal 3000
variable			Nrepeat	equal ${Nfreq}/10  # esse número dividindo deve ser Nevery
variable			Nrepeat	equal 3000/10  
variable			Nevery	equal 10



variable			IFTx equal abs((pxx-(pyy+pzz)/2)*lx)*${conversion}/${number_interfaces}
variable			IFTx equal abs((pxx-(pyy+pzz)/2)*lx)*9.05690062781216/${number_interfaces}
variable			IFTx equal abs((pxx-(pyy+pzz)/2)*lx)*9.05690062781216/2
fix				IFTx_ave all ave/time ${Nevery} ${Nrepeat} ${Nfreq} v_IFTx ave running start 0
fix				IFTx_ave all ave/time 10 ${Nrepeat} ${Nfreq} v_IFTx ave running start 0
fix				IFTx_ave all ave/time 10 300 ${Nfreq} v_IFTx ave running start 0
fix				IFTx_ave all ave/time 10 300 3000 v_IFTx ave running start 0

variable			IFTy equal abs((pyy-(pxx+pzz)/2)*ly)*${conversion}/${number_interfaces}
variable			IFTy equal abs((pyy-(pxx+pzz)/2)*ly)*9.05690062781216/${number_interfaces}
variable			IFTy equal abs((pyy-(pxx+pzz)/2)*ly)*9.05690062781216/2
fix				IFTy_ave all ave/time ${Nevery} ${Nrepeat} ${Nfreq} v_IFTy ave running start 0
fix				IFTy_ave all ave/time 10 ${Nrepeat} ${Nfreq} v_IFTy ave running start 0
fix				IFTy_ave all ave/time 10 300 ${Nfreq} v_IFTy ave running start 0
fix				IFTy_ave all ave/time 10 300 3000 v_IFTy ave running start 0

variable			IFTz equal abs((pzz-(pxx+pyy)/2)*lz)*${conversion}/${number_interfaces}
variable			IFTz equal abs((pzz-(pxx+pyy)/2)*lz)*9.05690062781216/${number_interfaces}
variable			IFTz equal abs((pzz-(pxx+pyy)/2)*lz)*9.05690062781216/2
fix				IFTz_ave all ave/time ${Nevery} ${Nrepeat} ${Nfreq} v_IFTz ave running start 0
fix				IFTz_ave all ave/time 10 ${Nrepeat} ${Nfreq} v_IFTz ave running start 0
fix				IFTz_ave all ave/time 10 300 ${Nfreq} v_IFTz ave running start 0
fix				IFTz_ave all ave/time 10 300 3000 v_IFTz ave running start 0

dump				1 all custom ${dump} all_${concentracao}.lammpstrj id mol type x y z
dump				1 all custom 3000000 all_${concentracao}.lammpstrj id mol type x y z
dump				1 all custom 3000000 all_1.0.lammpstrj id mol type x y z
dump				2 asfalteno custom ${dump} asfal_${concentracao}.lammpstrj id mol type x y z
dump				2 asfalteno custom 3000000 asfal_${concentracao}.lammpstrj id mol type x y z
dump				2 asfalteno custom 3000000 asfal_1.0.lammpstrj id mol type x y z
dump				3 aroma_ring custom ${dump} aroma_ring_${concentracao}.lammpstrj id mol type x y z
dump				3 aroma_ring custom 3000000 aroma_ring_${concentracao}.lammpstrj id mol type x y z
dump				3 aroma_ring custom 3000000 aroma_ring_1.0.lammpstrj id mol type x y z

timestep     			${dt}
timestep     			0.002
thermo	     			${thermo_prod}
thermo	     			3000
thermo_style			custom step temp press pe ke etotal epair emol v_IFTx v_IFTy v_IFTz
run				${total_timesteps}
run				3000000
WARNING: One or more chunks do not contain all atoms in molecule (../compute_chunk_atom.cpp:1164)
Per MPI rank memory allocation (min/avg/max) = 51.18 | 52.48 | 53.85 Mbytes
Step Temp Press PotEng KinEng TotEng E_pair E_mol v_IFTx v_IFTy v_IFTz 
       0   0.99981931     23.96611    4.5955846    1.4997252    6.0953098    4.5867682 0.0088164414    32.308627     12.96667    62.106001 
    3000    1.0031637    23.860272    4.5980506    1.5047418    6.1027924     4.588569 0.0094815771    7.5614318    5.5172755    17.940605 
    6000    1.0015354    24.083764    4.5980146    1.5022993    6.1003139     4.588445 0.0095695256    20.825528    22.032485    58.790112 
    9000    1.0019868    24.007535    4.5979328    1.5029765    6.1009093    4.5882511 0.0096817171    5.5305694    36.746078    57.992629 
   12000   0.99871612    24.016714    4.5968099    1.4980704    6.0948803    4.5873833  0.009426625    20.907085    10.676087    43.323945 
   15000    1.0019673    24.010518    4.5977156    1.5029472    6.1006628    4.5882383 0.0094772728    23.030001    11.810743    47.792492 
   18000    1.0018556     23.98554    4.6002317    1.5027797    6.1030114    4.5911294 0.0091023087    14.988678    6.5174749    29.500881 
   21000    1.0004159     24.00779     4.598402    1.5006201    6.0990221    4.5889636 0.0094383433    15.721499    7.8537905    32.339201 
   24000      1.00106    23.993177    4.6002495    1.5015862    6.1018357    4.5906143 0.0096351326    11.708052     30.04041    57.268095 
   27000    1.0009759    23.946843    4.5962805    1.5014602    6.0977406    4.5870297 0.0092507911    9.7110318    16.779029    36.337514 
   30000   0.99999027    23.957786    4.5986763    1.4999817    6.0986579    4.5899055 0.0087707268    27.457251    17.894515    62.210896 
   33000     1.001413     23.91094    4.5989015    1.5021158    6.1010172    4.5899322  0.008969205    27.361673    15.244029    58.444008 
   36000    1.0017608    23.923751    4.5995336    1.5026375     6.102171    4.5908209 0.0087126373    17.474053    9.9507256    37.619705 
   39000     1.002764    23.962057    4.5970669    1.5041422    6.1012092    4.5881043  0.008962626    11.874738    3.8635441    21.588854 
   42000    1.0002076    23.940955    4.5985986    1.5003076    6.0989062    4.5887611 0.0098374826     16.41915    12.055009    39.059182 
   45000    1.0004942    24.014956    4.5967651    1.5007376    6.0975027    4.5872713 0.0094938313     32.23745    5.8778973    52.284401 
   48000   0.99924274    23.981042    4.5969924    1.4988604    6.0958528    4.5877299 0.0092625129    26.863052    17.054725    60.243835 
   51000    1.0013106    23.954073    4.5963804    1.5019622    6.0983426    4.5869433 0.0094370451    26.920673    13.517578    55.470824 
   54000    0.9997862    23.969485    4.5986404    1.4996756    6.0983159     4.589594 0.0090463582    4.3994876    17.455069    29.978801 
   57000    0.9993928    23.915726    4.5972299    1.4990854    6.0963153    4.5882989 0.0089309939    41.830763    21.185787    86.442413 
   60000   0.99924416    23.953069    4.5975413    1.4988625    6.0964038     4.587841 0.0097002986    29.002328    5.4513204    32.305893 
   63000     1.000449    23.918546    4.5974335    1.5006698    6.0981033    4.5883269 0.0091066267    8.4213829    20.474825    39.638126 
   66000    1.0029961    23.994515     4.596526    1.5044904    6.1010164    4.5870599  0.009466065    4.3377841    11.764904    22.088725 
   69000    1.0004273    23.997341    4.5971905    1.5006372    6.0978277    4.5877881 0.0094023533    11.340859    18.669552    41.166524 
   72000    1.0019902    23.922866    4.5969545    1.5029816     6.099936    4.5876293 0.0093251657     2.774678    37.831119    48.088372 
   75000    1.0009469    23.981013    4.5974411    1.5014166    6.0988577     4.587772 0.0096690905    30.507362    2.0791856    38.996107 
   78000     1.000251    23.897112    4.5977613    1.5003727     6.098134     4.588167 0.0095943356    25.717578    6.1728033    43.745358 
   81000    1.0010349    23.894853    4.5967968    1.5015486    6.0983454    4.5869352 0.0098616304     18.03209    1.1904803    26.368397 
   84000    1.0005648    23.935848    4.5985372    1.5008435    6.0993807    4.5893618 0.0091754029    6.3939249    26.184101    27.147004 
   87000   0.99994454    23.959001    4.5980128    1.4999131    6.0979259    4.5889191 0.0090936769    16.895577    20.532671    51.341879 
   90000   0.99869779    23.944089    4.5985898    1.4980429    6.0966327    4.5890827 0.0095071374    18.755578    15.651167    47.197158 
   93000   0.99985362    24.014167    4.5973874    1.4997767    6.0971641    4.5881001 0.0092872929    24.978049    8.4755446    45.889681 
   96000    1.0014771    23.976665     4.594992    1.5022119    6.0972039     4.585757 0.0092350471    13.550047    33.930977    65.131688 
   99000   0.99952833    23.900316    4.6000112    1.4992888    6.0992999    4.5907422 0.0092690094    25.767526    10.786689    50.142932 
  102000    1.0024874    24.063137    4.5957183    1.5037273    6.0994456    4.5862491 0.0094692039   0.45116125    38.286788    53.138451 
  105000    1.0010566    23.913782    4.5962795    1.5015812    6.0978607     4.586813 0.0094664688     18.11215    14.489573    44.721135 
  108000    1.0020132    23.964305    4.5962931    1.5030161    6.0993092    4.5875304 0.0087627196    29.940359    6.4081608     49.86077 
  111000     1.000772    23.962853    4.6002159    1.5011542    6.1013702    4.5902742  0.009941754    18.826957    28.069459    64.329758 
  114000   0.99944843     23.89081    4.5979509    1.4991689    6.0971198    4.5889227 0.0090281624    22.566924    1.6015072    33.152838 
  117000   0.99961563    23.952227    4.5970817    1.4994197    6.0965014    4.5879076 0.0091741262    8.4910521    19.522024    38.426697 
  120000     1.000954     24.01463    4.5978182    1.5014272    6.0992454    4.5881447 0.0096735105    7.7165448    44.704364    50.737724 
  123000     1.003538    23.980145    4.5981933    1.5053033    6.1034965    4.5888983 0.0092949694    8.6210124    37.551966    63.337388 
  126000   0.99987628    23.936607    4.5981597    1.4998107    6.0979704     4.588978 0.0091817567    5.7565075    17.784236    32.291813 
  129000   0.99920824    23.956866    4.5973184    1.4988086     6.096127      4.58784 0.0094783983    2.6864675    30.929848    38.742615 
  132000    1.0008189    23.916059      4.59641    1.5012245    6.0976345    4.5877311 0.0086788582    31.572942     14.92533    63.783607 
  135000   0.99988938    23.948054    4.5984991    1.4998303    6.0983294    4.5893332 0.0091658371    5.3989625    22.322061    23.214116 
  138000    1.0014413    24.004149      4.59811    1.5021582    6.1002682     4.588517 0.0095929908    25.855676    28.814445    74.993271 
  141000    1.0006208    23.924854    4.5977609    1.5009275    6.0986884    4.5884046  0.009356286    9.2525985    33.530011    58.686678 
  144000    1.0020886    23.989705    4.6000292    1.5031292    6.1031584    4.5908655 0.0091636536    21.709948    9.3622685    42.623047 
  147000    1.0005626    23.936472    4.5973016    1.5008402    6.0981418     4.587644 0.0096575753    25.338134    12.469704    51.862579 
  150000   0.99990827    23.931955    4.5959481    1.4998587    6.0958067    4.5867035 0.0092445236    24.073006    6.8578031    42.429073 
  153000   0.99925305    23.965557     4.597721    1.4988758    6.0965969    4.5883848 0.0093362417    31.936784    12.079198    60.378545 
  156000    1.0025216    23.953331    4.5965568    1.5037787    6.1003355    4.5874997 0.0090570984     28.73399    6.2089347    47.932657 
  159000   0.99944663    23.919427    4.5980946    1.4991662    6.0972608    4.5879896  0.010104929    4.6213738    26.906603    30.569572 
  162000   0.99857774    23.872949    4.6004309    1.4978629    6.0982938    4.5907187 0.0097122289    20.126434    15.091993    48.310576 
  165000    1.0007897    23.961904    4.5958122    1.5011808     6.096993     4.586351 0.0094611795    13.458301    18.270632    6.6012743 
  168000    1.0032143    23.941544    4.5966562    1.5048176    6.1014738    4.5867843 0.0098718591     9.447556    31.466796    56.123912 
  171000    1.0000235    23.955824    4.5955199    1.5000315    6.0955514    4.5862959 0.0092240095    10.294482    25.545263    49.162863 
  174000    0.9982723    23.860265    4.5986579    1.4974047    6.0960626    4.5893704 0.0092875298    6.7693636    9.2144409    21.925647 
  177000    1.0009236    23.961761    4.5963181    1.5013817    6.0976998    4.5868983 0.0094198207    3.4398566    13.971978    23.884535 
  180000   0.99909329    23.944364    4.5985364    1.4986362    6.0971726    4.5889973 0.0095391313    24.203268    22.743066    64.398232 
  183000    1.0025987    23.961768    4.5958528    1.5038943    6.0997471    4.5866696 0.0091832052    3.5535588       23.584    37.225714 
  186000    1.0018216    23.994369    4.5979071    1.5027286    6.1006357    4.5885736 0.0093334482    30.474579     16.61522    64.595028 
  189000   0.99963044    23.911626    4.5985476    1.4994419    6.0979895    4.5891029 0.0094446657    23.749252    14.347025    52.258242 
  192000    1.0001919    23.977082    4.5957227    1.5002841    6.0960068    4.5868098 0.0089129131    11.354362    23.382224    47.649614 
  195000   0.99989835     23.96851    4.5984906    1.4998438    6.0983344    4.5890997 0.0093909044    25.640981    1.4593258    33.170979 
  198000   0.99833948    23.931437    4.5973597    1.4975055    6.0948651    4.5878523 0.0095073549    19.135243    8.7503138    38.251773 
  201000    1.0036201    23.893371    4.5992682    1.5054265    6.1046946    4.5897286 0.0095395366    18.845131    28.451341    64.878531 
  204000   0.99985047    23.981316    4.5952089     1.499772    6.0949808    4.5863164 0.0088924705    27.813865    3.9542228    43.577602 
  207000    1.0016556    24.041651    4.5973382    1.5024797    6.0998179    4.5882378 0.0091004318    13.832349    27.467568    56.652807 
  210000   0.99964345    23.899092    4.6000978    1.4994614    6.0995592    4.5907338 0.0093639561    3.1638718    27.786217     42.45552 
  213000    1.0011153    23.971397    4.5968339    1.5016692    6.0985031    4.5877868 0.0090471228    20.705676    46.811779    92.616491 
  216000    1.0009451    23.957876    4.5984869     1.501414    6.0999009    4.5895722 0.0089147365    31.497319    8.7781534    55.247535 
  219000    1.0010448     23.88248    4.5990143    1.5015634    6.1005777    4.5901562 0.0088581165    20.451276    7.8678398    38.846504 
  222000    1.0007254    23.844265    4.5989906    1.5010843    6.1000749    4.5897647 0.0092259729    21.977937    6.8144596    39.495724 
  225000    1.0026869    23.929713    4.6009774    1.5040266    6.1050041    4.5918716 0.0091058546    37.943288    5.4235685    44.608647 
  228000     1.003153    23.922818    4.5988075    1.5047258    6.1035333     4.589548 0.0092594769    16.465559    26.758538    59.292286 
  231000    1.0018861     24.06049    4.5959411    1.5028255    6.0987665    4.5872903 0.0086508073    27.057006    12.525102    54.296417 
  234000    1.0008366    23.963829    4.5985516    1.5012512    6.0998028    4.5895974 0.0089541896     32.38711    12.119861    61.052055 
  237000    1.0002316    23.909113    4.5977211    1.5003437    6.0980647    4.5888244 0.0088966682    41.296677    2.3926186    53.366309 
  240000   0.99880007     23.96379     4.597628    1.4981964    6.0958243    4.5883509 0.0092770552    26.610691    6.6157593    27.427877 
  243000    1.0016216    23.960734    4.5953191    1.5024286    6.0977476    4.5861829 0.0091361532    10.786259     19.08128    40.970542 
  246000     1.001161    23.957979    4.5968791    1.5017377    6.0986168    4.5878344 0.0090446978    18.961832    13.325656    44.290086 
  249000   0.99932484    23.993856    4.5994826    1.4989835    6.0984661    4.5902513 0.0092312518    9.9955677    26.240076    49.705934 
  252000    1.0029162    23.957677    4.5959296    1.5043705    6.1003001    4.5869463  0.008983314    25.313283   0.64652976     35.61015 
  255000    1.0018774    23.918555    4.5984978    1.5028124    6.1013103    4.5893214 0.0091764354    20.459414    6.9811657     37.64138 
  258000    1.0014464    23.901494    4.5966866    1.5021658    6.0988524    4.5870989 0.0095876427    7.2960311    21.587669    39.620968 
  261000    1.0012392    24.001353    4.5992851     1.501855    6.1011401    4.5899834 0.0093016258    9.9620032    31.125699    56.361704 
  264000    1.0039788    24.000856    4.6004081    1.5059644    6.1063725    4.5911902 0.0092178481    28.148465     15.22835    59.501774 
  267000     1.001679    24.009407    4.5976977    1.5025147    6.1002124    4.5882875 0.0094101844    18.870278    2.1296778    22.963775 
  270000   0.99949196    23.954523    4.5967226    1.4992342    6.0959568    4.5873283 0.0093943294    13.944187    32.326798    63.471828 
  273000    1.0008779    23.922802    4.5990506    1.5013131    6.1003638    4.5895334 0.0095171997    1.0276756    12.613819    18.712603 
  276000    1.0010107    24.022022     4.597198    1.5015124    6.0987104    4.5881411 0.0090569212    13.729101    24.299465     52.16536 
  279000     1.002878    23.997935    4.5985689    1.5043132    6.1028821    4.5892073 0.0093615985    30.370603    17.677147     65.90909 
  282000    1.0016486    23.974025    4.5962741    1.5024692    6.0987432    4.5874178 0.0088562673    4.3401971    20.592084    34.200643 
  285000    1.0020134    23.932021    4.5972286    1.5030163    6.1002449    4.5880601 0.0091684694    25.984737    8.6145012    47.461208 
  288000   0.99863263    24.007544    4.5968179    1.4979452    6.0947631    4.5874629  0.009355014    6.3169768    29.633421    49.314651 
  291000    1.0015797    24.031173    4.5962618    1.5023658    6.0986276     4.586973 0.0092887929    6.8956404    29.693759    50.191195 
  294000    1.0033783    23.903557    4.5965316    1.5050637    6.1015953    4.5872635 0.0092680536    24.992632    20.023943    61.751101 
  297000   0.99907097    23.925108    4.5989603    1.4986027     6.097563    4.5896168 0.0093435024    26.850015    34.323122    83.913727 
  300000    1.0001319    23.963612    4.5971498    1.5001941    6.0973439    4.5879501 0.0091997879    17.160107    21.289088    52.742355 
  303000     1.002334    23.903275    4.5983555    1.5034972    6.1018528    4.5887261 0.0096294638    34.338676    5.8131381    55.077906 
  306000    1.0001253    24.005837    4.5959212    1.5001842    6.0961055    4.5871396 0.0087815915    12.096122    20.184732    44.280986 
  309000    1.0014924    23.877113    4.5975191    1.5022348    6.0997539    4.5884583 0.0090608103    9.9626394    18.116609    38.517468 
  312000   0.99989437    23.973547    4.5978973    1.4998378    6.0977351    4.5888541 0.0090431466    6.5273855    25.790489    44.331767 
  315000   0.99883425    23.963953    4.5983016    1.4982476    6.0965493     4.588439 0.0098626243    18.936381    23.997459    58.894127 
  318000   0.99907576     23.98864    4.5984229    1.4986099    6.0970328    4.5887027 0.0097202661    2.4259797    23.143756    35.075066 
  321000    1.0006087    23.915598    4.5976994    1.5009092    6.0986087    4.5881192 0.0095801809    21.006206    9.6685504    42.077835 
  324000   0.99978336    23.952095    4.5992542    1.4996713    6.0989255     4.589751  0.009503202    27.208481    26.464912    73.626017 
  327000    1.0009652    23.953532    4.5984915    1.5014441    6.0999357    4.5892294  0.009262135    23.550308    16.577994    55.045654 
  330000    1.0006965     23.98633     4.597789     1.501041      6.09883    4.5885388 0.0092502782    16.538407    28.203278    61.374023 
  333000    1.0025226    24.015117    4.5983987    1.5037801    6.1021788    4.5886606 0.0097380917    26.496882    7.2214215    46.252794 
  336000    1.0013473    23.908416    4.5957853    1.5020172    6.0978024    4.5870312 0.0087540619   0.77355634    24.239923    34.312026 
  339000    1.0008262    23.936361    4.5971801    1.5012355    6.0984156    4.5878899   0.00929015    33.520543    16.129009    68.106347 
  342000    1.0006909    23.879766    4.5981544    1.5010327    6.0991871    4.5887158 0.0094385722    26.653581    9.4144979    49.476078 
  345000     1.001425    23.949559    4.5973023    1.5021338     6.099436    4.5882599 0.0090423906    6.5665684    23.546033    41.306702 
  348000    1.0024478    23.926246    4.5980214    1.5036679    6.1016893    4.5883679 0.0096534875    30.624358    3.5621634    46.895068 
  351000    1.0004124     23.99512     4.597321    1.5006149    6.0979359    4.5882231 0.0090978579    19.439157    37.480173    78.078603 
  354000    1.0021074    23.906541    4.5996824    1.5031573    6.1028397    4.5903477 0.0093347679    29.700849    28.036511    2.2830417 
  357000    1.0016813    23.959004    4.5969363    1.5025181    6.0994544    4.5875806 0.0093556706    19.231978    3.7733695    31.557389 
  360000   0.99917178    23.937716    4.5943053    1.4987539    6.0930593     4.585838 0.0084673647    12.541695     5.809723    25.173401 
  363000    1.0006531    23.981507    4.5979727    1.5009759    6.0989486    4.5889271 0.0090455561    25.489594    25.177728    69.502465 
  366000    1.0012191    23.944309    4.6001339    1.5018249    6.1019588    4.5906678 0.0094661366    14.277531    5.8794555    27.650174 
  369000    1.0017133    23.947366    4.5970323    1.5025662    6.0995985    4.5886827  0.008349537    26.894123    10.062457    50.694872 
  372000    1.0010114    23.994562      4.59798    1.5015133    6.0994933     4.589283 0.0086969962    23.053206    1.0702071    30.154991 
  375000    1.0027214    23.933204    4.5990772    1.5040783    6.1031555    4.5896245 0.0094526457    2.6089423    21.792357    33.472273 
  378000   0.99954588    23.986382    4.5959415    1.4993151    6.0952565     4.586666  0.009275435    11.536476   0.35216191    15.341987 
  381000    1.0002133    23.923826    4.5974922    1.5003162    6.0978084     4.588667 0.0088252285    10.802263    5.8381372    6.8094968 
  384000    1.0020853    23.959508    4.5968494    1.5031242    6.0999736    4.5877772  0.009072264    20.241329    22.963781    59.266239 
  387000   0.99860739    23.983005    4.6003613    1.4979073    6.0982687    4.5909591 0.0094022109    14.518959    11.609315    35.841236 
  390000   0.99811906     23.91194    4.5975829    1.4971748    6.0947578    4.5881614  0.009421469    2.2707495    17.907822    27.679782 
  393000    1.0015909    23.872964    4.5959445    1.5023826    6.0983271    4.5867573 0.0091871768    21.493881    1.2742785    31.232028 
  396000    1.0009857     23.95038    4.5986707    1.5014749    6.1001456    4.5895139 0.0091568652    10.137892    7.4726454    24.157104 
  399000    1.0011327    23.993908    4.5962487    1.5016953     6.097944    4.5865439 0.0097047628    22.613182    18.464672    56.348195 
  402000    1.0026288    24.026621    4.5972866    1.5039394     6.101226    4.5882839 0.0090027031    27.903674    5.9592126    30.102127 
  405000   0.99976293    23.979437    4.5999563    1.4996406    6.0995969    4.5905799 0.0093763876    20.736056    14.623749    48.504509 
  408000   0.99969165    23.990878     4.597029    1.4995337    6.0965627    4.5879863 0.0090426501    19.478999    41.911302    84.211619 
  411000   0.99981499    23.962262    4.5968755    1.4997187    6.0965943     4.588051 0.0088244916    25.395495    20.610114    63.107801 
  414000     1.001358    23.888324    4.5975327    1.5020332    6.0995659    4.5880095 0.0095231845    26.704021    15.702541    58.170838 
  417000    1.0025667    23.876557     4.599783    1.5038463    6.1036293    4.5904328 0.0093502547    12.886924    19.790299      44.8247 
  420000    1.0020115    23.947907    4.5970546    1.5030135    6.1000681    4.5874393 0.0096153186    9.2866024    18.354922    37.917024 
  423000    1.0023872    23.949134    4.5995647     1.503577    6.1031417    4.5900989 0.0094658633    31.125956    10.690113    57.360835 
  426000    1.0022635     23.97175    4.5959788    1.5033916    6.0993703     4.586819 0.0091597632    6.1729128    25.034024    42.807848 
  429000   0.99906473    23.989464    4.5998972    1.4985934    6.0984905    4.5902951 0.0096020693    21.920705     40.33505    85.398799 
  432000   0.99932214    23.993621    4.5990684    1.4989795    6.0980479    4.5894151 0.0096532878    5.7329186    13.889064    26.916286 
  435000    1.0025535    23.909544     4.598693    1.5038265    6.1025196    4.5891516  0.009541412    5.4127876    4.0797429    13.021297 
  438000    1.0011877      23.9648    4.5970685    1.5017778    6.0988463    4.5879655 0.0091029763    11.517099    18.891376    10.115601 
  441000    1.0017423    24.027504     4.598329    1.5026097    6.1009387    4.5894784 0.0088505809    9.0089461    15.079435    33.043031 
  444000    1.0018061     23.97655    4.5954873    1.5027054    6.0981928    4.5862601 0.0092272674    14.453891    22.698491    50.963462 
  447000    1.0019815    23.946326    4.5960483    1.5029685    6.0990167    4.5869344 0.0091139036    31.073357    9.8323489    56.112051 
  450000   0.99918878    23.871822    4.5995751    1.4987794    6.0983545    4.5903202 0.0092548988    5.8571277    20.911255    36.719299 
  453000   0.99975014    23.932202    4.5993113    1.4996215    6.0989328    4.5903843 0.0089269396    19.115808    9.5384948    39.306295 
  456000   0.99945627    23.953689    4.5975383    1.4991807     6.096719    4.5880117 0.0095265757    21.545117    47.986661     36.27096 
  459000     1.000356    23.972031    4.5986989    1.5005302    6.0992292    4.5895024 0.0091965889    18.851526    13.028498     43.73115 
  462000    1.0022025    24.030208    4.5965073       1.5033    6.0998073    4.5869783   0.00952904      27.4016    8.1272199    48.736354 
  465000    1.0004713     23.89198    4.5972789    1.5007032     6.097982    4.5880957 0.0091831366    11.854103    16.297469    38.616678 
  468000    1.0019052    23.982318      4.59892     1.502854     6.101774    4.5893646 0.0095554311    11.573325    18.967256     41.89378 
  471000    1.0007466    23.940949     4.597275    1.5011162    6.0983912    4.5883505 0.0089244964    2.1709648    22.063999      27.2881 
  474000      1.00157     24.01884     4.595601    1.5023512    6.0979522    4.5858048 0.0097961413    6.9890734    32.419875    54.058887 
  477000    1.0018829    23.944189    4.5976013    1.5028205    6.1004218    4.5882677 0.0093335201    24.927555    12.030992    50.697569 
  480000    1.0006571    23.951408    4.5972456    1.5009819    6.0982275    4.5884027 0.0088428665    2.5633076    18.855655    29.381278 
  483000    1.0000259    23.923373    4.5982227    1.5000351    6.0982578    4.5887949 0.0094277304    20.213892    10.820314    42.570906 
  486000    1.0004311    23.861957    4.5953394    1.5006429    6.0959822    4.5868122 0.0085271628    27.687782     16.14387    60.125694 
  489000     1.000686    23.940509    4.5965071    1.5010252    6.0975323     4.587684 0.0088231165    11.069107     10.99029    30.259789 
  492000    1.0000275    23.961721    4.5972313    1.5000375    6.0972688    4.5879328 0.0092984952    21.282428    17.878792    53.719068 
  495000    1.0013667    24.056245    4.5967483    1.5020462    6.0987946     4.588061  0.008687308    19.982026    19.187003     53.72978 
  498000     1.001584    23.941821    4.5994344    1.5023723    6.1018068    4.5902826 0.0091518294    28.418475    11.230471    54.388101 
  501000    1.0009775    23.967526    4.5980208    1.5014626    6.0994834    4.5889543 0.0090664598    5.2014413    34.975293    55.112091 
  504000    1.0006853     23.91249    4.6005813    1.5010242    6.1016055     4.591147 0.0094343707    17.599244    11.383264    39.756507 
  507000    1.0016775    23.894937    4.5974199    1.5025126    6.0999325    4.5887479 0.0086720595     31.72593    29.695796    84.254726 
  510000   0.99964951    23.928504    4.5988227    1.4994705    6.0982933    4.5899917 0.0088310764    5.1942844     18.42167    32.394983 
  513000   0.99926236    23.994068    4.5984882    1.4988898     6.097378    4.5892256 0.0092625969    25.415433     10.95366    49.888991 
  516000    1.0021192    23.962801    4.5989245     1.503175    6.1020996    4.5896081 0.0093164505    17.906533    6.4690512    33.436999 
  519000   0.99884981    23.963763    4.5967436     1.498271    6.0950146    4.5871134 0.0096301589    16.763711    3.5075712    27.806958 
  522000   0.99842562    23.957318    4.5971588    1.4976347    6.0947935    4.5877814 0.0093773599    16.935566    17.949602     47.85343 
  525000     1.000949    23.902188    4.5994539    1.5014197    6.1008736    4.5893874  0.010066568    4.7248469    28.911674    33.178073 
  528000    1.0026592    24.085553    4.5964417     1.503985    6.1004267    4.5872921 0.0091496098    20.264813    26.196569    63.733003 
  531000    1.0018382    23.958985    4.5983419    1.5027535    6.1010953    4.5892219 0.0091199761    12.367543    3.0407974    12.793884 
  534000     1.001322    23.967211    4.5947306    1.5019792    6.0967098    4.5862771 0.0084534915    24.451506    11.682535    49.566562 
  537000    1.0024762    23.902884    4.5974835    1.5037106    6.1011941    4.5878058 0.0096776736    10.634623     27.43619    52.223312 
  540000    0.9997023    23.959441    4.5976835    1.4995497    6.0972332    4.5877532 0.0099302787    32.066374    11.794851    60.166259 
  543000    1.0026525    24.064147    4.5969691     1.503975    6.1009441    4.5873996 0.0095695204    22.126178    16.410941    52.862963 
  546000   0.99907752    23.956159    4.5962644    1.4986125     6.094877    4.5868721 0.0093923068    10.527823    27.583597    52.279013 
  549000    1.0017979    23.956758    4.5985038     1.502693    6.1011969    4.5891133 0.0093905237    20.713376    31.712596    71.914879 
  552000    1.0005569    23.969713    4.5997613    1.5008317     6.100593    4.5911109 0.0086504365    22.144845     9.694053    43.674736 
  555000   0.99862057    23.921353    4.5962197    1.4979271    6.0941468    4.5868907 0.0093290016    27.820576    7.4790785    48.421999 
  558000   0.99963808     23.98345    4.5983232    1.4994534    6.0977766    4.5887397 0.0095835443    40.231581    23.157117    86.952903 
  561000    1.0032324    23.890269    4.5987467    1.5048448    6.1035915    4.5898578 0.0088889185    11.442886    28.484036    54.769413 
  564000    1.0014471    23.918254    4.5963359    1.5021668    6.0985028    4.5872285 0.0091073939    28.608744    18.996667    65.302315 
  567000    1.0020622    23.979436    4.5979239    1.5030895    6.1010134    4.5886347 0.0092892424    10.304691    13.681963    32.903487 
  570000    1.0002931    23.907075    4.5959096    1.5004359    6.0963456    4.5871004 0.0088092535     50.33015    3.6885744    74.099723 
  573000   0.99969442    23.962542    4.5976965    1.4995379    6.0972344    4.5884507 0.0092457717    17.732556    8.0086812    35.310322 
  576000   0.99942957    23.943682    4.5974229    1.4991406    6.0965635    4.5885923 0.0088305435     12.56407    34.357643    64.364459 
  579000    1.0020275    24.000639    4.5976093    1.5030376    6.1006469    4.5881529  0.009456452    33.084247    4.9870266    52.223944 
  582000    1.0003172    23.993239    4.5942742     1.500472    6.0947462    4.5854583 0.0088159102    30.159847    3.8941876    46.713331 
  585000    1.0016927    23.929909    4.5985119    1.5025353    6.1010473    4.5894754 0.0090365451    31.116973    27.137364    79.909887 
  588000    1.0008717    23.944763    4.5947233    1.5013038    6.0960271    4.5854122 0.0093110182    3.5412866    40.340215    60.194074 
  591000   0.99935889    24.012065    4.5968205    1.4990346    6.0958551    4.5871548 0.0096656665    5.4865664    17.292866    31.247491 
  594000   0.99993191    23.934439     4.595978    1.4998941    6.0958721    4.5872078 0.0087701677     10.19467    25.200025     48.55237 
  597000    1.0004836    23.984719    4.6001771    1.5007217    6.1008988    4.5916421  0.008535047    20.087481    20.348206    55.467308 
  600000    1.0017407    23.949822    4.5992959    1.5026073    6.1019032    4.5898225 0.0094733844    10.383987    9.6321037    27.456902 
  603000    1.0010589    23.953167    4.5979844    1.5015845     6.099569    4.5891007 0.0088837456    21.701991    18.407147    55.019366 
  606000    1.0006617     23.99538    4.5955155    1.5009888    6.0965043    4.5864153 0.0091002087    28.846442    12.081409    56.142429 
  609000    0.9992811    23.849136    4.5980688    1.4989179    6.0969867    4.5884209 0.0096478708    22.686977    3.1479895    35.438895 
  612000      1.00012    23.963359    4.5964247    1.5001763     6.096601     4.587305 0.0091196321     16.24048     2.244872    25.357123 
  615000    1.0018725    23.973565    4.5978627     1.502805    6.1006677    4.5887138 0.0091488674    28.115038    13.879948    57.606264 
  618000   0.99928978    23.997607    4.5994948    1.4989309    6.0984257    4.5901757 0.0093191262     4.925029    32.034974    50.699567 
  621000    1.0009661     23.94745    4.6002212    1.5014454    6.1016665    4.5903812 0.0098400101    9.5839755    23.621748    45.549667 
  624000    1.0023027    23.887144    4.5960514    1.5034503    6.0995017    4.5870168 0.0090345931    26.127112    16.315341    58.220071 
  627000   0.99679026    23.925116    4.5973523    1.4951817     6.092534    4.5881838 0.0091685401    32.864925    10.151047    59.006791 
  630000    1.0009833    23.957147    4.5956902    1.5014712    6.0971614    4.5867765 0.0089136654       4.8073    23.839341    39.295784 
  633000    1.0023346    23.974845    4.5995896    1.5034982    6.1030878    4.5906176 0.0089720897    24.676862    12.643316    51.193635 
  636000   0.99933134    23.929012    4.5984577    1.4989933     6.097451    4.5891237 0.0093340051    7.9265841    25.677528    46.096152 
  639000    1.0002121    24.005588    4.5969449    1.5003144    6.0972593    4.5882967  0.008648198    22.142291     17.03596     53.74243 
  642000    0.9976328     23.94568    4.5987267    1.4964455    6.0951722    4.5888864 0.0098402521    33.356053    33.242771    91.356366 
  645000   0.99935442    23.902993    4.5962622    1.4990279    6.0952901    4.5873159 0.0089462831   0.84099046    18.476913    24.191926 
  648000    1.0005306    23.933839    4.5999649    1.5007921     6.100757    4.5903156 0.0096492775   0.63578788    28.841697    38.691214 
  651000   0.99977011    23.948018    4.5994714    1.4996514    6.0991228    4.5904358 0.0090355753    6.7136363    16.088961    31.279267 
  654000    1.0017722     24.07465    4.5984104    1.5026545    6.1010649    4.5888568 0.0095536018      4.80098    13.373618     24.93085 
  657000    1.0029729    23.940262    4.5990441    1.5044556    6.1034997    4.5899336 0.0091105185    27.977743    16.092579    60.453086 
  660000    1.0009959    23.910586    4.5983649    1.5014901    6.0998549    4.5893097 0.0090551787     14.80026    17.663656    44.532099 
  663000    1.0012802      24.0015    4.5971975    1.5019166    6.0991141    4.5885418 0.0086557087    21.359132    2.8446468    33.201327 
  666000    0.9998376    23.956858    4.5982997    1.4997527    6.0980523    4.5888613 0.0094383672    4.9065889    41.124819    63.143189 
  669000    0.9999029    23.948903    4.5986729    1.4998506    6.0985235    4.5891441 0.0095288077    18.837339    32.717628    70.720084 
  672000   0.99943501    23.927438    4.5979924    1.4991488    6.0971411    4.5884028 0.0095895901    11.388647    25.060835    49.999265 
  675000   0.99915792    23.881751    4.5978469    1.4987331      6.09658    4.5889923  0.008854562    22.646168   0.72028837    32.052737 
  678000     1.000494    23.967909    4.5981261    1.5007373    6.0988634    4.5886881 0.0094380366    8.4361854    13.918835     7.520777 
  681000    1.0031011     23.94563    4.5962293    1.5046479    6.1008771     4.586885 0.0093442845   0.33177617    21.592805    29.164634 
  684000   0.99927959    23.998468    4.5998712    1.4989156    6.0987868     4.590511 0.0093601746     5.645347    26.824168    44.539779 
  687000    1.0017634    23.962365    4.5994132    1.5026414    6.1020546    4.5905278  0.008885415    25.269915    39.247117    88.500686 
  690000   0.99971707     23.88058    4.5937552    1.4995719    6.0933271    4.5845618 0.0091934132    32.240577    7.2754264    34.245731 
  693000     1.000739    23.960148      4.59803    1.5011048    6.0991348    4.5886907 0.0093393606    18.285673    19.427772    51.733096 
  696000     0.999917     23.98139    4.5966091    1.4998718    6.0964809    4.5872857 0.0093234901    25.961973    23.976711    68.502962 
  699000    1.0004741    23.999853    4.5956834    1.5007074    6.0963908    4.5868706 0.0088127803    13.651794    30.536567    60.615006 
  702000    1.0003032     23.95678    4.5969691    1.5004511    6.0974202    4.5876285 0.0093406039    6.5560622    35.634969    57.875185 
  705000   0.99988862    23.927011     4.596972    1.4998292    6.0968012    4.5877126   0.00925944    13.888646    23.252586    50.948167 
  708000   0.99971073    23.965532    4.5969805    1.4995623    6.0965428    4.5877027 0.0092777914     24.41136    9.5604715    46.600569 
  711000    1.0015255    23.965444    4.5972605    1.5022845     6.099545     4.588278 0.0089825322    12.741609    19.561033    9.3544871 
  714000   0.99982191    23.926115    4.5976074    1.4997291    6.0973365    4.5884313  0.009176095    2.9146438    18.746106    29.712948 
  717000    1.0005402    23.881613    4.5977694    1.5008065    6.0985759    4.5883645 0.0094048459    30.285617    14.761251    61.792655 
  720000    1.0010382    23.914104    4.5976684    1.5015535    6.0992219    4.5880544 0.0096139809    22.976186    31.150913    74.248385 
  723000    0.9991727    23.920936    4.5958825    1.4987553    6.0946378    4.5866174 0.0092650544    52.942055    7.2846772    62.630117 
  726000   0.99905338    24.020732    4.5995013    1.4985763    6.0980776    4.5901649 0.0093364179    17.383705    15.886178    45.637677 
  729000    1.0005033    23.940887    4.5973664    1.5007512    6.0981177     4.588098 0.0092684832    17.373476    23.072609    55.481571 
  732000    1.0002049    23.968572     4.596255    1.5003036    6.0965586    4.5871258 0.0091292013    20.852981    12.937898    46.352348 
  735000    1.0007819    23.987874    4.5979032    1.5011691    6.0990723    4.5888805 0.0090227663    26.154873     12.47489    52.990046 
  738000    1.0019608    23.970127    4.5978081    1.5029374    6.1007455    4.5888934 0.0089146739    38.251601     3.218835    48.055897 
  741000    1.0034085    24.015656    4.5984964     1.505109    6.1036055    4.5890607 0.0094357354    17.354149    20.408435    51.800501 
  744000     1.000056    24.002686    4.5987523    1.5000802    6.0988325    4.5892267 0.0095255711    29.024627    5.0621725    46.758275 
  747000    1.0021455    23.959659     4.597669    1.5032145    6.1008835    4.5882245 0.0094445218    42.582891    5.4015222    65.822207 
  750000    1.0024202    23.997057    4.5969939    1.5036265    6.1006204    4.5881864 0.0088074945    15.508778    10.449819    35.608483 
  753000    1.0002714    23.987106    4.5994078    1.5004033    6.0998111    4.5899305 0.0094772721    9.5846723    27.273893    50.560421 
  756000   0.99833425    23.979607    4.6003862    1.4974976    6.0978839    4.5909508 0.0094354715    12.971221    11.230758    33.198857 
  759000    1.0003992    23.946088    4.5969517     1.500595    6.0975467    4.5875418 0.0094099202    37.418269    12.001713    67.791438 
  762000     1.000074    23.942704     4.597949    1.5001072    6.0980562    4.5890101 0.0089388979    25.574363     2.722136    38.815481 
  765000    1.0008333    23.971284    4.5980612    1.5012462    6.0993074    4.5888069 0.0092542614    13.269062    11.857202    34.466737 
  768000    1.0013787    23.940872    4.5970111    1.5020642    6.0990753    4.5876034 0.0094076671     23.09418    11.714038    47.747876 
  771000    1.0014722    23.942542    4.5984986    1.5022045    6.1007031    4.5896939 0.0088047333    8.3689239    8.7929937   0.58171412 
  774000    1.0023918    23.964629    4.5965121    1.5035839     6.100096    4.5875877 0.0089244051    20.143551    15.856402    49.382627 
  777000    1.0011027    24.032615    4.5988806    1.5016503    6.1005309    4.5895532 0.0093274504    18.124531    32.731906    69.761882 
  780000    1.0004454    23.951867     4.597709    1.5006643    6.0983733    4.5882817 0.0094272925    30.796978    4.7315313    48.735928 
  783000    1.0003061     23.93084    4.5971124    1.5004554    6.0975678    4.5880456 0.0090668106    28.267142    4.9708754    45.593966 
  786000   0.99965772    23.970045    4.5956429    1.4994828    6.0951257    4.5867652 0.0088776855    7.3835057    23.133393    41.861295 
  789000    1.0007023    23.973397    4.5988168    1.5010497    6.0998665    4.5897439 0.0090728824    18.541097    14.527597    45.361698 
  792000   0.99873343    23.943368    4.5965035    1.4980964    6.0945999    4.5868804 0.0096230952    41.783644     10.25058    71.377502 
  795000    1.0008975    23.921312    4.5984666    1.5013425    6.0998091    4.5887812 0.0096854333    8.8858688    13.990019    31.379803 
  798000    1.0010465    24.062658    4.5950914     1.501566    6.0966574    4.5856883 0.0094030967    14.533977    11.211349     35.31593 
  801000   0.99923032    24.001714    4.5968446    1.4988417    6.0956863    4.5877933 0.0090513295     1.153592    31.721388    45.095972 
  804000     1.000643    23.930413    4.5989807    1.5009607    6.0999415    4.5894565 0.0095241791    3.6465626     6.360483    13.727079 
  807000    1.0004269    23.967361    4.5956031    1.5006365    6.0962396    4.5866228 0.0089802437    39.666489    18.006909    29.711344 
  810000    1.0007663    23.999623    4.5995641    1.5011457    6.1007097    4.5895824  0.009981683     31.93841     33.70925    90.051615 
  813000    1.0001809    24.000396    4.5965033    1.5002676    6.0967709    4.5869299 0.0095734175    15.246394    2.2563435    24.009231 
  816000   0.99985216    23.956405    4.5968626    1.4997745    6.0966371    4.5882087 0.0086538883    8.1524413    18.628128    36.736017 
  819000   0.99908664    24.007364    4.5965142    1.4986262    6.0951404    4.5873395 0.0091746965    15.555449    3.6107602    16.385025 
  822000    0.9977628    24.080805     4.595074    1.4966405    6.0917145    4.5859061 0.0091679204    21.693239   0.39232213     29.21935 
  825000    1.0031652    23.897248    4.5980323    1.5047441    6.1027764     4.588346 0.0096862942    31.714336    15.913193    21.675083 
  828000   0.99960546     23.90948    4.5977347    1.4994044    6.0971392    4.5891041 0.0086306017    17.030139    39.143218    77.055321 
  831000   0.99996509    23.992997    4.5964125    1.4999439    6.0963564    4.5867769 0.0096356536    3.0190026    21.558883    33.714504 
  834000    1.0005841    23.940682    4.5961376    1.5008724      6.09701    4.5869703 0.0091672682    4.6722819    22.972638    25.103356 
  837000    1.0000141    24.007955     4.596823    1.5000174    6.0968404    4.5876113 0.0092116273    24.043095    19.714808    60.024528 
  840000    1.0017586    23.961672    4.5968697    1.5026342    6.0995038    4.5874971 0.0093725508   0.82765987    39.656912    55.534365 
  843000   0.99956393    23.909148    4.5986181    1.4993422    6.0979603    4.5890186 0.0095994697    1.1328293    29.620817    39.078153 
  846000    1.0000515    23.873027     4.597147    1.5000735    6.0972205    4.5879464 0.0092006091    12.867974     16.67503    40.525363 
  849000   0.99895444    24.007331    4.5963265    1.4984279    6.0947544    4.5874844 0.0088420516    17.161502    22.986008    55.072003 
  852000    1.0018407    23.989851    4.5983161    1.5027573    6.1010733    4.5893845 0.0089315129     25.15222    10.623838    49.075502 
  855000   0.99923821    23.950134    4.5960037    1.4988536    6.0948573    4.5865818 0.0094219069    3.5807445    18.282521    29.990747 
  858000     1.000251    23.893265    4.5988209    1.5003728    6.0991937    4.5894162 0.0094046123    38.075411    0.9173828    53.488031 
  861000   0.99991482    23.957813    4.5961096    1.4998685    6.0959781    4.5873179 0.0087917182   0.94040168    35.940176    50.590617 
  864000   0.99883159     23.93526    4.5956407    1.4982436    6.0938843    4.5861964 0.0094443171    7.7264327    35.289029    59.006092 
  867000   0.99996211     23.91883    4.5971622    1.4999394    6.0971017    4.5881014 0.0090608444    19.588791    14.483652    46.738582 
  870000   0.99970596     24.07161    4.5982268    1.4995552     6.097782    4.5885788 0.0096480103    25.947625    19.161428    61.877957 
  873000    1.0016538    23.942708    4.5963796    1.5024769    6.0988565    4.5874285 0.0089510801    24.561027    31.906676    77.459088 
  876000    1.0017754    23.965478    4.5965291    1.5026594    6.0991885    4.5868889 0.0096401841    2.2328557     23.18354    28.738922 
  879000   0.99974605    23.947085    4.5973549    1.4996153    6.0969702    4.5891217  0.008233144    14.794202    10.791097    35.096415 
  882000    1.0016694    23.982099    4.5973088    1.5025004    6.0998091    4.5881632 0.0091455874    19.013761    5.1374703    33.129244 
  885000   0.99954282    24.004536    4.5963267    1.4993105    6.0956372    4.5870303 0.0092963677     8.295233    17.516224    35.406646 
  888000    1.0006014    23.945258    4.5988389    1.5008984    6.0997373    4.5893888 0.0094501067    8.4016806    17.548162    35.596475 
  891000   0.99812396    23.949203    4.5984778    1.4971822    6.0956601    4.5892196 0.0092582713    18.155761    9.9501566    38.554052 
  894000   0.99917792    23.966804       4.5947    1.4987631    6.0934631    4.5862666 0.0084333346    40.272486    1.9644607     57.93817 
  897000    1.0002219    23.943054    4.5959289    1.5003291    6.0962581    4.5869319 0.0089970109    25.661887    2.8079934    39.053315 
  900000    1.0006794    24.033317    4.5970892    1.5010154    6.0981047    4.5881282 0.0089610512    8.0884315     19.90071    38.393865 
  903000   0.99989068    23.928189    4.5952513    1.4998323    6.0950835     4.586221 0.0090302857    27.633151     6.893938    47.362238 
  906000    1.0004911    23.932162    4.5979229    1.5007329    6.0986558    4.5881358 0.0097870596    3.5014068    18.066761     29.58595 
  909000    1.0009204    23.937907    4.5986332    1.5013768      6.10001    4.5897623 0.0088709125    20.232102    21.160325    56.779707 
  912000    1.0020604    23.968216    4.5989068    1.5030868    6.1019936    4.5891471 0.0097597188    22.254034    17.988294    55.202069 
  915000    1.0017957    24.008948    4.6004341    1.5026897    6.1031238    4.5910155 0.0094185741     22.22437    20.156514    58.135615 
  918000    1.0001734    23.971557    4.5988145    1.5002563    6.0990709    4.5896708 0.0091437476    2.7248129    13.649639    14.986037 
  921000    1.0002641    24.034264    4.5987592    1.5003924    6.0991516    4.5899203 0.0088389155    23.325692    2.0143356     29.23367 
  924000    1.0009231    23.977031    4.5967461    1.5013809     6.098127    4.5875836 0.0091625659    2.6127245    24.860168     30.51774 
  927000    1.0014982    23.933048    4.5965301    1.5022435    6.0987736    4.5871982 0.0093319825    3.4914518    48.622846    61.908603 
  930000    1.0007967    23.937451     4.596911    1.5011913    6.0981023     4.587365 0.0095459348    10.003234     30.69534     55.82792 
  933000    1.0004888    23.928909    4.5935852    1.5007295    6.0943147    4.5849106 0.0086745578    17.664233    30.947728    66.683041 
  936000    1.0011669    23.897947      4.59729    1.5017466    6.0990366    4.5883276 0.0089623403    23.709295    11.542264    48.356024 
  939000    1.0015389    23.990492    4.5978894    1.5023046     6.100194    4.5879073 0.0099820666     2.448184     31.62034    40.016655 
  942000   0.99981865    23.929534    4.5976053    1.4997242    6.0973295    4.5881138 0.0094914741    16.351185    17.447555    46.363133 
  945000    1.0009431    23.937378    4.5976395     1.501411    6.0990505    4.5881363 0.0095032158    15.141825    12.780176    38.301766 
  948000    1.0011384    23.896897    4.5985046    1.5017038    6.1002084    4.5886969 0.0098077107   0.85605207    19.759507    28.279216 
  951000     0.999567    23.915873     4.595044    1.4993468    6.0943908    4.5859166 0.0091274078     12.08722    7.3621485    26.679504 
  954000   0.99938623    23.912605    4.5955064    1.4990756     6.094582    4.5865129 0.0089934855    31.695877    26.082106    79.256454 
  957000    1.0002796    23.960327    4.5966117    1.5004156    6.0970273    4.5875014 0.0091103088    9.9093838    32.150077    57.694705 
  960000    1.0016635     23.98933    4.5984395    1.5024915    6.1009309    4.5896863 0.0087531243    17.929502    34.823707    72.363762 
  963000    1.0017897     23.89069    4.5945002    1.5026808     6.097181    4.5856885 0.0088117029   0.72807565    34.799708    48.734933 
  966000   0.99997539    23.947978    4.5981674    1.4999593    6.0981268    4.5890672 0.0091002623   0.58939186    23.138394    32.548387 
  969000     1.002403    23.947409    4.5956863    1.5036007     6.099287    4.5865694  0.009116895    9.9046623     5.108015    20.593512 
  972000    1.0016962    23.854707     4.597081    1.5025406    6.0996216     4.588032 0.0090490392    29.710782    25.424165    75.630892 
  975000    1.0015782    23.917004    4.5956126    1.5023636    6.0979762    4.5861907 0.0094219132    24.100334    17.497555    57.061548 
  978000   0.99972896    23.916376    4.5961227    1.4995897    6.0957124    4.5876734 0.0084493094     16.33792    31.666583    65.849766 
  981000    1.0020283    23.945168    4.6005783    1.5030387    6.1036171    4.5912004 0.0093779209    26.864598    12.486406    53.979404 
  984000   0.99891635    23.977707    4.5972565    1.4983708    6.0956273    4.5876739 0.0095826261    16.277827     22.07872    52.615266 
  987000       1.0015    23.888534    4.5965403    1.5022462    6.0987865    4.5872887  0.009251601    19.487267    6.1575974    35.178124 
  990000    1.0000969    24.027066    4.5979031    1.5001416    6.0980447     4.588679 0.0092240317    31.430074    8.1349264    54.272951 
  993000    1.0007469    23.974589    4.5982183    1.5011166    6.0993349    4.5885521 0.0096661564    21.688736    6.6306907    38.846931 
  996000    1.0008338    23.990001    4.5962745     1.501247    6.0975215    4.5872608 0.0090137091    6.1211718    29.442117    48.783637 
  999000    1.0019291     23.91745    4.5983672    1.5028899     6.101257    4.5888297 0.0095374811    2.2503955    28.052798    41.568147 
 1002000   0.99888832    23.918784    4.5986496    1.4983287    6.0969783     4.589377 0.0092725594    23.331928    10.445908    46.334457 
 1005000    1.0010869    23.892455    4.5974349    1.5016266    6.0990615    4.5880662 0.0093686432    29.519371    12.117556    57.115098 
 1008000   0.99952481    23.908559    4.5994751    1.4992835    6.0987586    4.5905951   0.00888002    7.4239878    24.205816    43.387912 
 1011000    1.0002198    23.955268    4.5976135     1.500326    6.0979396    4.5884695  0.009144047     1.215865    24.320842    35.029759 
 1014000   0.99992318    23.979398    4.5960638     1.499881    6.0959448    4.5867567 0.0093070535    34.128015    5.4918356    54.348191 
 1017000    1.0032891     23.94574    4.5968548    1.5049299    6.1017847    4.5875317 0.0093230563     2.939439    27.540146    41.810109 
 1020000   0.99919202     23.97854    4.5962314    1.4987843    6.0950157    4.5871398 0.0090915848    3.0534003    16.976295    27.475563 
 1023000    1.0014064    23.973761    4.5989471    1.5021058    6.1010529    4.5898865 0.0090605861    13.574996      21.1996    47.701755 
 1026000     1.001809    23.915945    4.5955204    1.5027097    6.0982302    4.5867042 0.0088162143    20.445058    15.470618    49.267022 
 1029000    1.0016201    23.978444    4.5998102    1.5024264    6.1022366    4.5905607 0.0092494891    3.1710148     13.30911    13.906846 
 1032000    1.0001702     23.98013    4.5956856    1.5002515    6.0959371    4.5867234   0.00896221    25.840203    15.576731    56.813325 
 1035000    1.0000415    23.934343    4.5970765    1.5000586    6.0971351     4.587415 0.0096614828    7.0943493    18.812592    35.537625 
 1038000    1.0014125    23.991363    4.6000483    1.5021151    6.1021633    4.5906977 0.0093505198    27.868828    7.7742639    27.564547 
 1041000   0.99969703    23.939899    4.5975622    1.4995418     6.097104    4.5882342 0.0093280259    8.9751537    9.3059623    25.076964 
 1044000    0.9996348    23.995027    4.5966672    1.4994485    6.0961156    4.5880538 0.0086133635    22.746663    18.593773     56.70839 
 1047000    1.0025215     24.02036    4.5980437    1.5037784    6.1018221    4.5886203 0.0094233312    14.078214    17.796169    43.723412 
 1050000     1.001542    24.010763     4.598064    1.5023092    6.1003733    4.5883488 0.0097152871     19.70302    6.1745645    35.497355 
 1053000   0.99933957    24.014387     4.599324    1.4990056    6.0983296    4.5902492  0.009074796    12.981852    30.195975    59.228814 
 1056000    1.0021502    23.983056    4.5965304    1.5032215    6.0997519    4.5873185 0.0092119625    13.464603    21.602682    48.103247 
 1059000    1.0015022    23.928136    4.5992496    1.5022495    6.1014991    4.5899829 0.0092666357    25.458833  0.022296472    34.953521 
 1062000    1.0015553     23.94116    4.5978211    1.5023292    6.1001503    4.5881484 0.0096726807    27.210385    8.0283894    48.338487 
 1065000   0.99983753    23.868437    4.5978567    1.4997526    6.0976093    4.5891037 0.0087530497    4.3330867     32.51468    38.657859 
 1068000    1.0030163    23.963297    4.5965767    1.5045207    6.1010974    4.5871237 0.0094530417    5.0303145    25.167522    41.423623 
 1071000    1.0020051     24.00053    4.5962588    1.5030039    6.0992627    4.5874013  0.008857498    10.181222    21.755373    43.808751 
 1074000     1.000088    23.950733    4.5972695    1.5001282    6.0973977    4.5873201 0.0099493934    4.7113767    26.659105    30.106609 
 1077000   0.99999898    24.035047     4.594468    1.4999947    6.0944628    4.5852131 0.0092548846    25.872885    13.352969     53.80773 
 1080000    1.0020332    23.958323    4.5951278    1.5030461    6.0981739    4.5860426 0.0090851369    36.164959    16.997144     72.92466 
 1083000    1.0014375     23.93958    4.5965715    1.5021525     6.098724     4.587444 0.0091275326    16.861898    11.908512    39.465563 
 1086000   0.99932884     23.99654    4.5988146    1.4989895    6.0978041     4.589122 0.0096925928   0.98184185    6.4574323    10.204761 
 1089000    1.0004444    23.938154    4.5960498    1.5006629    6.0967127    4.5869753 0.0090744664    13.307118    19.272863     44.69131 
 1092000   0.99951966    23.944541    4.5978718    1.4992757    6.0971475    4.5884539 0.0094178731    25.153505    9.9769868    48.189951 
 1095000   0.99994156    23.958893    4.5975477    1.4999086    6.0974563    4.5882724 0.0092752593    23.963177    5.3739054    40.242891 
 1098000    1.0014171    24.009789    4.5979611    1.5021219     6.100083     4.588317 0.0096440904    2.5822678     12.02217    12.949105 
 1101000   0.99944122    23.919932    4.5972028    1.4991581    6.0963609    4.5882963 0.0089065533     14.06259    12.887327    36.968318 
 1104000    0.9983352    23.933728    4.5961226    1.4974991    6.0936217    4.5870014 0.0091212143    1.5560504    10.656105     16.75192 
 1107000   0.99982399    23.905298    4.5970048    1.4997322     6.096737     4.587723 0.0092817869    3.2161093    12.172962    21.109826 
 1110000    1.0016702    23.897917    4.5975936    1.5025016    6.1000952    4.5883491 0.0092444536    20.453854   0.27045096    28.428387 
 1113000    1.0013316    23.958675     4.597753    1.5019936    6.0997466    4.5885619 0.0091910998     5.325217     23.42121    24.823023 
 1116000   0.99999171    23.881955     4.596749    1.4999838    6.0967329    4.5874084 0.0093406637    21.173398    13.271209    47.249094 
 1119000    1.0003057    23.942133    4.5973233    1.5004548     6.097778    4.5880241 0.0092991028    6.7362459    15.142007    30.011307 
 1122000    1.0007789    23.939368    4.5946418    1.5011646    6.0958064     4.585713 0.0089288877    11.819833    27.685177    54.190659 
 1125000    0.9995827    23.881854    4.5999718    1.4993703    6.0993421     4.590784 0.0091878542    7.2870833    21.131175    38.982502 
 1128000   0.99902432    23.899367    4.5966245    1.4985327    6.0951573    4.5875264 0.0090981444    18.107062     11.69396    40.879297 
 1131000    1.0004124     23.99225    4.5982058    1.5006148    6.0988206    4.5885003 0.0097054693    19.991008    22.909491    58.848392 
 1134000    1.0028427    23.994133    4.5973089    1.5042603    6.1015691    4.5878657 0.0094431518    19.807179    14.776954    47.440488 
 1137000   0.99896772    23.999781    4.5980603    1.4984478    6.0965081    4.5885712 0.0094890792     32.17167    5.3012212    51.403118 
 1140000    1.0008046    23.971643    4.5974886    1.5012031    6.0986917    4.5887056 0.0087830721    9.3621653    31.491286    56.040372 
 1143000    1.0015438    23.940994    4.5977093    1.5023119    6.1000212    4.5889783 0.0087309658    25.413973    6.3871111    43.622864 
 1146000   0.99948524    23.900761    4.5971249    1.4992241     6.096349    4.5880408 0.0090840812    11.463622    23.420588    47.852116 
 1149000   0.99864706    23.975989    4.5971937    1.4979668    6.0951605    4.5881124 0.0090813125    1.9814221    15.018176    17.883056 
 1152000    1.0001918    23.926969     4.599715    1.5002839    6.0999989    4.5901279 0.0095870251    24.795387    6.4539855    42.866059 
 1155000    1.0003527    23.996857    4.5971415    1.5005253    6.0976668    4.5876448  0.009496727    21.510786    23.736282    62.067278 
 1158000   0.99953822    23.959307     4.596573    1.4993036    6.0958766    4.5875171 0.0090558908    3.9420945    10.813781    20.241246 
 1161000    1.0002217    23.944567    4.5969198    1.5003288    6.0972485    4.5882522  0.008667564    31.044327    19.954652    69.957414 
 1164000   0.99956444    23.993449    4.5975615    1.4993429    6.0969044    4.5880278 0.0095336987     10.13857    34.635806    33.603873 
 1167000    1.0008969    23.995878    4.5986707    1.5013416    6.1000123    4.5896392 0.0090314968    21.200328    4.4458808    35.179967 
 1170000   0.99937977    23.926595    4.5960314    1.4990659    6.0950973    4.5866688 0.0093625359    14.562168    18.401458    45.217572 
 1173000    1.0018483    24.002935      4.59459    1.5027686    6.0973586    4.5856799 0.0089101014    17.604546     21.97778    54.296717 
 1176000     1.000703      24.0077    4.5977175    1.5010508    6.0987683    4.5883741 0.0093433913    21.891383    26.561703    66.465107 
 1179000    1.0009115    23.900651    4.5988955    1.5013635     6.100259    4.5896085 0.0092869236    9.2144855     5.867792    20.688985 
 1182000    1.0013643    23.896782     4.597455    1.5020427    6.0994977    4.5886243 0.0088307502    19.835133    10.773306    41.986863 
 1185000    1.0031086    24.029964     4.599828    1.5046592    6.1044871    4.5903702  0.009457802   0.45131088     31.74451    42.926178 
 1188000    1.0003145    23.986536     4.599624    1.5004679    6.1000919    4.5907422 0.0088818207    23.499907    31.533861    75.492099 
 1191000    1.0019898    23.989955    4.5987065     1.502981    6.1016875    4.5888531 0.0098534383    23.734113    19.594617    59.435815 
 1194000    1.0009978    23.995099    4.5991546    1.5014929    6.1006475    4.5898832 0.0092714496    1.0096633    29.605489    39.226078 
 1197000    1.0017885    23.939916    4.5977408     1.502679    6.1004198    4.5887824 0.0089583581    28.671907    24.454999    72.876378 
 1200000    1.0027348    23.928267    4.5977542    1.5040985    6.1018526    4.5883706 0.0093835188    8.0898043    28.275473    49.883758 
 1203000    1.0022049    23.942859    4.5984092    1.5033035    6.1017128    4.5891113 0.0092979878    26.571717    5.8765185    28.388461 
 1206000    1.0016662    23.957996    4.5979627    1.5024955    6.1004583    4.5886358 0.0093268952    35.882431    2.5965081    45.659679 
 1209000    1.0019326    23.932792    4.5975314    1.5028951    6.1004266    4.5881873 0.0093440895     23.85079    1.8554959    30.171857 
 1212000    1.0011732    23.925479    4.5952484    1.5017561    6.0970045    4.5859343 0.0093141356    18.453818    6.9456118    34.841451 
 1215000   0.99968405    23.893613    4.5971237    1.4995223     6.096646    4.5874917  0.009631994    14.862488     17.41103    44.270922 
 1218000    1.0027257    23.978939    4.5967829    1.5040848    6.1008677    4.5871836 0.0095993353    20.084517   0.18620421    27.806188 
 1221000    1.0020352    24.014667    4.5973784     1.503049    6.1004274    4.5883264 0.0090520102    40.449077     6.949604    65.018735 
 1224000    1.0015647    23.914566    4.5965489    1.5023433    6.0988923    4.5878917 0.0086572073    31.078077    9.5809738    55.773704 
 1227000    1.0016398    23.861008    4.5954654     1.502456    6.0979214     4.586441 0.0090243763    20.362689    8.2201954    39.208327 
 1230000   0.99904083    23.968987     4.596107    1.4985575    6.0946645     4.587312 0.0087950465    3.4999243    13.979477    23.977219 
 1233000   0.99814273    23.865997    4.5960539    1.4972104    6.0932643    4.5871197 0.0089341874    10.967312    24.156087    48.180222 
 1236000     1.001433    23.937082     4.597006    1.5021457    6.0991518    4.5874416 0.0095644384    5.0844755    36.798313    43.503185 
 1239000    1.0031803    23.919897    4.6005434    1.5047667    6.1053101    4.5908026  0.009740802    22.614511    6.6999484    40.211858 
 1242000   0.99830254    23.950203     4.598153    1.4974501    6.0956031    4.5884335 0.0097194654    7.9240062    29.937062    51.935595 
 1245000    1.0000593    23.886539    4.5960888    1.5000851    6.0961739    4.5869247 0.0091640666    13.204192    18.112465    42.958357 
 1248000    1.0003546    23.988152    4.5980012    1.5005281    6.0985293    4.5889782 0.0090230279    12.703723    21.941526    47.524323 
 1251000   0.99975965    23.982411    4.5984874    1.4996357    6.0981231    4.5890209 0.0094664898    3.3038451    12.016826    21.015999 
 1254000   0.99809842    23.961839    4.5995392    1.4971439    6.0966831    4.5905441 0.0089951006    28.057777    1.1587013    40.077453 
 1257000    0.9998948    23.894957    4.5949184    1.4998385    6.0947569    4.5852819 0.0096364525   0.50384907     22.46953    30.131235 
 1260000    1.0013545    23.932444    4.5975411     1.502028    6.0995691    4.5886991 0.0088420309    2.0581891    48.479156    63.677564 
 1263000    1.0001642    23.953034     4.596977    1.5002426    6.0972196    4.5878359 0.0091410881    14.335999    35.639552    29.222967 
 1266000    1.0032891    23.903765    4.5968785    1.5049299    6.1018084    4.5881466 0.0087318834    15.184422    16.359048    43.269484 
 1269000    1.0001785    23.959565    4.5978614     1.500264    6.0981254     4.588409 0.0094523744    19.565085    7.5078696    37.137094 
 1272000    1.0006431    23.981146    4.5984133    1.5009609    6.0993742    4.5889973 0.0094160234    24.758004    13.370527    52.302485 
 1275000   0.99977929    23.887777    4.5986585    1.4996652    6.0983237    4.5894591 0.0091994145    15.984693     7.719523    32.516056 
 1278000    1.0007366     23.90036    4.5974581    1.5011012    6.0985593    4.5879859 0.0094722437    23.215901    15.662372    53.330937 
 1281000    1.0006395    23.962303    4.5968478    1.5009555    6.0978033    4.5873698 0.0094779766    19.906758    11.081459    42.507821 
 1284000    1.0014376    23.871852    4.5975149    1.5021527    6.0996675    4.5882049 0.0093099331    12.384475    7.3972106    27.135358 
 1287000   0.99883261    23.925045    4.6017308    1.4982452     6.099976    4.5919536 0.0097771905    14.196032      37.0482    70.293836 
 1290000   0.99921432    23.959107    4.5983064    1.4988177    6.0971241    4.5889923 0.0093140478    24.284294     9.205303    45.939068 
 1293000     1.001415    23.956458    4.5958135    1.5021187    6.0979322    4.5864654 0.0093480534    7.8049944    17.164927    34.252276 
 1296000    1.0016461     23.95887    4.5962703    1.5024654    6.0987357    4.5865588 0.0097114853    16.045565    27.143078    15.222919 
 1299000    1.0009027    23.957044    4.5941464    1.5013502    6.0954966    4.5846163 0.0095300769    26.986323    24.818154    71.062347 
 1302000     1.001378    24.008954    4.5960164    1.5020633    6.0980797    4.5873969 0.0086195289    1.1717486     39.98572    56.457405 
 1305000   0.99989579    24.046597    4.5959478    1.4998399    6.0957877    4.5873841 0.0085636497    21.494883    31.565099    72.784576 
 1308000   0.99824114    23.975965    4.5954329     1.497358    6.0927908    4.5866337 0.0087992092    9.2313619    21.802769    42.570803 
 1311000    1.0000718    23.976472    4.5989146    1.5001039    6.0990185    4.5899135 0.0090011927    20.678662    20.967411    57.127645 
 1314000   0.99900764    23.970836    4.5973934    1.4985077    6.0959011    4.5882715 0.0091219624    21.172702    17.595023    53.179295 
 1317000   0.99938648    23.941489    4.5944901     1.499076    6.0935661    4.5858869 0.0086032179   0.42826618    24.538381    34.247785 
 1320000    1.0006364    23.940397    4.5982364    1.5009508    6.0991872    4.5883368 0.0098996444    10.616487    39.175571    39.175679 
 1323000   0.99814275    23.955516    4.5986972    1.4972104    6.0959075    4.5896055 0.0090916904    23.435743    9.4352991    45.090571 
 1326000    1.0012659    24.000484    4.5974372    1.5018951    6.0993323    4.5880376 0.0093995967    5.9725081    15.922257    30.033957 
 1329000   0.99806752    23.916271    4.5945267    1.4970975    6.0916242    4.5852446 0.0092820554    14.384829    18.800274    45.521382 
 1332000     1.001454    23.911847    4.5999871    1.5021772    6.1021643    4.5907448  0.009242214   0.48985741    24.464974    34.231576 
 1335000    1.0005406    23.948645    4.5994235    1.5008071    6.1002307     4.590531 0.0088925598    3.0589456    23.573835    28.141124 
 1338000    1.0013024    23.916934    4.5980668    1.5019498    6.1000166    4.5889565 0.0091102962    24.011967    18.311381     58.05669 
 1341000     1.000218     23.92725    4.5958579    1.5003233    6.0961812    4.5861108 0.0097470411    40.072748    4.8247567    61.587768 
 1344000   0.99830661     23.91419    4.5986894    1.4974562    6.0961455    4.5890259 0.0096634311    17.411418    15.637668    45.334801 
 1347000   0.99997671    23.991743    4.5977116    1.4999613    6.0976729    4.5884375 0.0092740177    37.991257     12.24151    68.906369 
 1350000     1.001006     23.99185     4.599778    1.5015053    6.1012833    4.5906305 0.0091475072    27.478181    28.889235     77.32152 
 1353000   0.99963919    23.941725    4.5960512     1.499455    6.0955062    4.5873524 0.0086987785    12.999159    39.067634    71.422177 
 1356000    1.0000169    23.913144    4.5974153    1.5000216    6.0974369    4.5881128  0.009302465     15.34803    10.649556    35.661966 
 1359000    1.0027824    23.970773    4.5991972    1.5041699     6.103367    4.5899121 0.0092850443    32.545396    19.957825    72.020843 
 1362000    1.0014383    24.036953    4.5965442    1.5021536    6.0986979    4.5874718 0.0090724394    11.105261    14.211279    34.727746 
 1365000    1.0014233    23.948576    4.5972017    1.5021313    6.0993329    4.5880669 0.0091347645   0.71390183       35.339    49.455259 
 1368000   0.99955094    23.928706    4.5975489    1.4993227    6.0968716    4.5882486 0.0093003777    21.739043    23.033651     61.41656 
 1371000    1.0014448    23.973078    4.5976012    1.5021635    6.0997646    4.5881575 0.0094436211    3.3634774    14.426321    15.175361 
 1374000    0.9986694    23.897257    4.5967378    1.4980004    6.0947382    4.5875725 0.0091653314    25.508563    24.258201    68.267133 
 1377000     1.001807    23.914656    4.5952747    1.5027068    6.0979815    4.5864325 0.0088421917   0.93023115    20.493624    29.387989 
 1380000    1.0009657    23.882258    4.5981049    1.5014449    6.0995498    4.5890368 0.0090681224    17.650411    31.079549    66.844907 
 1383000    1.0021014    24.000526    4.5956446    1.5031483    6.0987929    4.5863998 0.0092448296     13.29777    10.134125    32.142501 
 1386000    1.0023445    23.928948    4.5972601     1.503513    6.1007731    4.5883299 0.0089302115    19.787812    12.564144    44.378519 
 1389000    1.0015432    23.969582    4.5944586     1.502311    6.0967696    4.5851174 0.0093411707    1.6964633    20.713389    30.740523 
 1392000    1.0008916    23.937711    4.5972641    1.5013336    6.0985978    4.5874914 0.0097726712    25.929249    4.2215881    29.777298 
 1395000    1.0001303     23.97882    4.5945208    1.5001916    6.0947124    4.5856554 0.0088653448    17.224163    2.5670132    20.105819 
 1398000    1.0013539    24.012909    4.5950945     1.502027    6.0971215    4.5859021 0.0091923548    30.697378    10.337265     27.92881 
 1401000   0.99985042    23.981075    4.5971641    1.4997719     6.096936    4.5879973 0.0091667745    6.2445451    51.798944    62.488857 
 1404000    0.9995874    24.009868    4.5965075    1.4993774    6.0958849    4.5874673 0.0090402644    5.5384974     9.200485    20.218073 
 1407000     1.003474    23.947777    4.5986036    1.5052072    6.1038109    4.5894581 0.0091455212    18.024061    19.406101    51.344505 
 1410000    1.0001814    23.940781    4.5959113    1.5002684    6.0961796    4.5869138 0.0089974664    15.814828     10.14939    35.616194 
 1413000      1.00212    23.937795     4.599563    1.5031762    6.1027392    4.5903166  0.009246451    16.830843    19.052121    49.222149 
 1416000    1.0000489    23.952869    4.5958866    1.5000696    6.0959563     4.587152 0.0087346802    25.299603     23.30031    66.666515 
 1419000   0.99898318    23.951349    4.5992403     1.498471    6.0977113    4.5896917 0.0095485064    6.8670229    17.290634    33.138059 
 1422000    1.0002441    23.970303    4.5986361    1.5003623    6.0989984    4.5894894 0.0091467177    32.221566    10.143568     58.11401 
 1425000   0.99984359    23.973451    4.5980615    1.4997616    6.0978231    4.5891584 0.0089031217    17.374879    9.3951406    36.721545 
 1428000    1.0019623    23.940603    4.5964861    1.5029398    6.0994258    4.5882221 0.0082640094    11.143707    20.009128    42.733636 
 1431000   0.99993553    23.892445    4.5949622    1.4998995    6.0948618    4.5858701  0.009092141    9.2809014    20.235891    40.489407 
 1434000    1.0007886    23.984301    4.5966246    1.5011791    6.0978037    4.5877955 0.0088291184    5.6064759    24.999441    26.602134 
 1437000    1.0007329    23.933706    4.5982196    1.5010956    6.0993153    4.5893746 0.0088449778    18.251948    3.8122695    30.266401 
 1440000   0.99957757    23.919838    4.6005104    1.4993626    6.0998731    4.5906388 0.0098715996    23.141566    6.0446351    40.035921 
 1443000    1.0005578    23.971057    4.5975394    1.5008329    6.0983723    4.5883136 0.0092258167   0.72993378    30.474778    42.804796 
 1446000   0.99949527    23.940058    4.5967591    1.4992392    6.0959983    4.5875642 0.0091948999    9.5920201    10.504326     27.56699 
 1449000    1.0002199    23.952797     4.597446    1.5003261    6.0977721    4.5883444 0.0091016722    31.491232     5.599299    50.878619 
 1452000    1.0022531    23.943228    4.5994399    1.5033758    6.1028158    4.5903988 0.0090410979    14.446775    13.214908    37.944676 
 1455000   0.99941308    23.968205    4.5980145    1.4991159    6.0971304     4.588541 0.0094735012    8.1069034    16.122523    33.236508 
 1458000    1.0004394    23.949086    4.5963987    1.5006554    6.0970541    4.5875542 0.0088445258    14.598594    14.657968    40.132439 
 1461000    1.0000061      23.9793    4.5986404    1.5000055    6.0986458    4.5893484 0.0092920126      39.7789    9.6264333    67.771342 
 1464000    1.0000127    24.003697    4.5978938    1.5000153    6.0979091     4.588963 0.0089308053    19.232685    4.8345514    33.014025 
 1467000     1.000194    23.928958    4.5970992    1.5002873    6.0973864    4.5876029 0.0094962599    25.055232    10.289621    48.483998 
 1470000    1.0007072    23.905764    4.5984892    1.5010571    6.0995463    4.5889551   0.00953415    31.613878    9.1359476    55.898225 
 1473000    1.0015079    23.916491    4.5994808     1.502258    6.1017389    4.5904792 0.0090016233    10.945777    31.965475    28.833591 
 1476000     1.000952    23.927957    4.5973195    1.5014242    6.0987438     4.588651 0.0086684878    21.488453    9.3801487     42.34374 
 1479000    1.0010065    24.014574    4.5970006     1.501506    6.0985066    4.5883362 0.0086644501    3.5634818    28.815047     44.41497 
 1482000    1.0022449    23.969053    4.5968843    1.5033635    6.1002478    4.5876485 0.0092357339    25.799991    2.2088135    38.420837 
 1485000    1.0009145    23.971802    4.5971806     1.501368    6.0985486    4.5884159 0.0087646951     26.91731    4.0055403    31.429024 
 1488000    1.0030148    23.966524    4.5985456    1.5045184     6.103064    4.5889373 0.0096082492    20.390189    19.392335    54.571336 
 1491000   0.99711638    23.997956    4.5972919    1.4956708    6.0929627    4.5882002 0.0090916427    24.994794    35.712122    83.274193 
 1494000    1.0006849    23.965791    4.5976592    1.5010236    6.0986829    4.5881091 0.0095501431    9.4000642    5.9448821    21.049299 
 1497000    1.0001013    23.943002    4.6000293    1.5001482    6.1001775    4.5904031 0.0096261978    24.815431    5.2475011    41.238569 
 1500000    1.0016396    24.047569    4.5964027    1.5024557    6.0988584    4.5872528 0.0091499355    23.131862     12.94347    49.486027 
 1503000    1.0017504     23.92962    4.5955959    1.5026218    6.0982177     4.586479  0.009116946    19.476614    1.0059062    25.337035 
 1506000    1.0004145    23.998421    4.5956094    1.5006181    6.0962275    4.5866506 0.0089588261    19.273958    27.519761    64.188883 
 1509000    1.0011327    23.990933    4.5995231    1.5016952    6.1012184    4.5897878 0.0097353208    11.941267    22.903268    15.037031 
 1512000    1.0002255     24.00203    4.5987308    1.5003345    6.0990653    4.5895291 0.0092016699    8.4414404    31.723019    55.095253 
 1515000    1.0001844    23.959169    4.5959226    1.5002728    6.0961955    4.5866886 0.0092340838    30.157364    1.0094408    39.983414 
 1518000    1.0024011     23.98387    4.5959344    1.5035979    6.0995323    4.5870461 0.0088883667    14.441158    23.075813    51.463583 
 1521000    1.0024171    23.948556     4.597658    1.5036219    6.1012799    4.5880291 0.0096288994    16.722606    1.1999675    24.585137 
 1524000    1.0020488    23.990929    4.5947862    1.5030694    6.0978556    4.5858912  0.008894952    35.181367    1.8277296    50.766911 
 1527000    1.0022304     23.97709    4.5959607    1.5033418    6.0993025    4.5866375 0.0093231308    19.475552    17.783561    51.109868 
 1530000    1.0025679    23.986586    4.5979753    1.5038481    6.1018234    4.5888917 0.0090835986    6.5870041    26.513809    45.405756 
 1533000    1.0010929     23.94404     4.597063    1.5016355    6.0986985    4.5877002 0.0093628302     12.90977     31.47379    60.882768 
 1536000    1.0003392    23.939768    4.5959797     1.500505    6.0964848    4.5869447 0.0090349927    3.3490034    21.278456    24.594572 
 1539000    1.0023631    24.002937    4.5984101    1.5035408    6.1019509    4.5889857  0.009424326    18.977035    25.560494    61.093974 
 1542000      0.99988    24.010827    4.5990522    1.4998162    6.0988685    4.5898571 0.0091951409    27.061813     6.484009    46.016194 
 1545000    1.0004486    23.918356    4.5966029    1.5006692     6.097272    4.5877155 0.0088873806    31.412885    1.0329108    44.507243 
 1548000    1.0014653    23.958299    4.5979223    1.5021942    6.1001165    4.5888101 0.0091122057     22.90607    13.346623    49.729322 
 1551000    1.0016807    23.937053    4.5944113    1.5025173    6.0969287    4.5859848 0.0084265593    31.080929    25.505143    77.621459 
 1554000    1.0024784    23.916035    4.5959469    1.5037138    6.0996607    4.5866924 0.0092545287      24.2885     12.52466    50.498137 
 1557000    1.0014945    23.952242    4.5970601     1.502238    6.0992981    4.5876195 0.0094406222    14.526223    30.393109    61.617709 
 1560000     1.002632    23.960078    4.5991734    1.5039442    6.1031177    4.5901887 0.0089846779    25.657886     6.632079    44.293482 
 1563000     1.002682     23.91295    4.5976131    1.5040192    6.1016323    4.5881719 0.0094411269    14.662064    34.908575      67.9981 
 1566000    1.0021752    23.969529    4.5957912     1.503259    6.0990502    4.5864233 0.0093679113    21.295642    20.523536    1.0591293 
 1569000    1.0007557    24.037026    4.5974943    1.5011298     6.098624    4.5886661 0.0088281978    49.220429    14.026442    86.758353 
 1572000    1.0025571    24.056121    4.5975506     1.503832    6.1013825    4.5882415 0.0093090386    13.433321    6.8924096    27.881647 
 1575000    1.0002338    23.948786     4.597071     1.500347    6.0974179    4.5879629 0.0091080096     16.17063    15.506688    43.453091 
 1578000   0.99914924    23.979638    4.6007926    1.4987201    6.0995128    4.5916967 0.0090959028    18.349553    12.317192    42.066845 
 1581000    1.0024654    23.955987    4.5960458    1.5036943    6.0997401    4.5866645 0.0093812694    26.147103    13.204565    53.980314 
 1584000    1.0019981     24.05769    4.5949025    1.5029933    6.0978959    4.5860072 0.0088953102    19.373761    17.001469     49.89741 
 1587000    0.9994701    23.974738    4.5976483    1.4992014    6.0968497    4.5887662 0.0088820351    25.625035    3.5319098     39.99579 
 1590000    1.0021935     23.97242    4.5965958    1.5032865    6.0998823    4.5872333  0.009362514    41.969968    7.2058636    47.687363 
 1593000    1.0014166    23.921865    4.5984931    1.5021211    6.1006141     4.589332 0.0091610112    3.5168121    7.0497367    14.494573 
 1596000    1.0015894    23.995772    4.5977554    1.5023804    6.1001357    4.5882603 0.0094950622    22.876109    18.461123    56.703994 
 1599000    1.0009635    23.981492    4.5976357    1.5014415    6.0990772     4.588218 0.0094176953    17.269315    12.825066     41.28171 
 1602000    1.0001508    23.928272       4.5966    1.5002225    6.0968225    4.5874274 0.0091726075    21.706032    22.540824    60.695247 
 1605000   0.99958366    23.962102    4.5987248    1.4993717    6.0980966    4.5896865 0.0090382936    29.181098     30.12003    81.345816 
 1608000     1.000006    23.912693    4.5973845    1.5000053    6.0973898    4.5878578 0.0095266393    12.746466    25.148454    51.982033 
 1611000    1.0007286    24.008807    4.5972161    1.5010892    6.0983053    4.5878259 0.0093901981    11.205707    21.571284    44.961556 
 1614000    1.0019785    24.014607    4.5968894    1.5029639    6.0998534    4.5875697  0.009319753    33.108063    5.0605719    52.357498 
 1617000    1.0010941    23.992534     4.596776    1.5016375    6.0984135    4.5878815 0.0088945037     35.06355     4.411548    54.149627 
 1620000    1.0008583    23.935522    4.5976992    1.5012836    6.0989828    4.5880774 0.0096217177    24.252328    17.742655    57.606258 
 1623000    1.0016271    23.904903    4.5942845    1.5024369    6.0967214    4.5849835 0.0093010181     16.63339     29.27268    62.971258 
 1626000    1.0036705     23.94479    4.5961681     1.505502    6.1016701    4.5864749 0.0096932218     4.365026    28.871874    33.617059 
 1629000    1.0006545    23.926449    4.5980456     1.500978    6.0990236    4.5887443 0.0093012852    35.696213    12.909532    66.674514 
 1632000    1.0008013    23.987049    4.5979525    1.5011982    6.0991507    4.5885519  0.009400602    19.123532     30.70868    68.356909 
 1635000    0.9997042    24.007984    4.5964473    1.4995526    6.0959999    4.5867888 0.0096585012    25.106987    21.194002    63.512985 
 1638000    1.0013334    23.929844    4.5970715    1.5019964    6.0990679    4.5880268 0.0090447015    8.6264036    26.987497    48.853063 
 1641000    1.0016421    23.939046    4.5976482    1.5024594    6.1001076    4.5882537  0.009394427     3.645138     23.99147     37.91028 
 1644000   0.99936504    23.982802    4.5984634    1.4990438    6.0975072    4.5887563 0.0097070668    27.241579    13.236176    55.525014 
 1647000    1.0008009    23.895976    4.5955196    1.5011976    6.0967172    4.5861191 0.0094005087    23.669183    11.244096    47.891992 
 1650000    1.0017287     23.93622    4.5959581    1.5025893    6.0985474    4.5866761  0.009282018    33.682687     16.81111    69.264433 
 1653000    1.0004327    23.980773     4.597725    1.5006453    6.0983703    4.5881082 0.0096167699    15.240333    27.819893    59.067496 
 1656000    1.0002682    23.926265    4.5961963    1.5003986    6.0965949    4.5866931   0.00950321    7.8697474    18.672727    36.409412 
 1659000    1.0026054    23.927416    4.5947439    1.5039044    6.0986483    4.5859629 0.0087810139    10.402267    1.3649432    12.396871 
 1662000    1.0011868    23.881596    4.5977718    1.5017764    6.0995482    4.5882958 0.0094760273    37.521929    3.4088076    56.146387 
 1665000    1.0025065    23.943369    4.5988929     1.503756    6.1026489     4.589534 0.0093588928    13.274042    21.166832    47.243974 
 1668000    1.0000154    23.937456    4.5965289    1.5000193    6.0965482    4.5875082 0.0090207095    12.261545    21.236142    45.950165 
 1671000    0.9990864    23.954601    4.5973271    1.4986259    6.0959529    4.5879952 0.0093318366    4.1160573     28.12354    44.224392 
 1674000      1.00188    23.917693    4.5972603    1.5028162    6.1000766    4.5879685 0.0092918013    23.983261    14.636245    52.975977 
 1677000    1.0020439    24.008942    4.5981042    1.5030621    6.1011664    4.5887527 0.0093515114    4.6454777    13.399275    24.752736 
 1680000    1.0003734     23.95604    4.5986673    1.5005564    6.0992237     4.589401  0.009266242    22.811735    3.1471298     35.60885 
 1683000    1.0018461    23.973618    4.5959861    1.5027653    6.0987514    4.5870883 0.0088978029    13.448523    14.040541    37.707889 
 1686000    1.0000488    23.943199    4.5960505    1.5000694      6.09612    4.5872418 0.0088086973    12.344542    32.341883     61.29822 
 1689000   0.99899814    23.937775    4.5953471    1.4984935    6.0938406    4.5867217 0.0086254143    24.355853    15.066417    54.077161 
 1692000    1.0007066    23.971031     4.595559    1.5010561    6.0966152    4.5865362 0.0090228967    18.884681    15.871322    47.676248 
 1695000    1.0007096    23.916811    4.5984919    1.5010606    6.0995526    4.5889857 0.0095061967    31.122703    22.798243    73.965596 
 1698000    1.0002842    23.926124    4.5985997    1.5004226    6.0990223    4.5885695  0.010030171    12.586674    31.545199    60.537519 
 1701000    1.0004959    23.935071    4.6000964    1.5007401    6.1008364    4.5902614 0.0098349543    4.7638667    16.652739    16.308459 
 1704000   0.99836822    23.938638    4.5964477    1.4975486    6.0939963    4.5870565  0.009391185    13.790223    19.868889    46.171599 
 1707000    0.9996225    24.017895    4.5945266      1.49943    6.0939566    4.5858188 0.0087077765    2.9017533      40.2284    59.163419 
 1710000   0.99980767    23.961954    4.5992222    1.4997078      6.09893    4.5899791 0.0092431513    17.068799    17.153334    46.943918 
 1713000    1.0023716    23.991066    4.5953208    1.5035536    6.0988744     4.586088 0.0092327803    8.9130568    36.949437    62.911483 
 1716000   0.99880201    23.948886    4.5976695    1.4981993    6.0958688    4.5881952 0.0094743374    23.806596    11.010926    47.760638 
 1719000    1.0009453    24.000301    4.5966178    1.5014142     6.098032    4.5878508 0.0087670783    0.3871834    21.276177    28.654298 
 1722000    1.0005568    23.932235    4.5980664    1.5008314    6.0988978     4.588768 0.0092984305    17.643677    25.291639    58.896151 
 1725000    1.0023245    23.935894    4.5959268    1.5034829    6.0994097    4.5863554 0.0095714459    12.785292    9.5486279    30.636364 
 1728000   0.99961469    23.978762    4.5984893    1.4994183    6.0979076    4.5888526 0.0096367706      18.1378    10.642173    39.478681 
 1731000    1.0019645    23.958978    4.5973964     1.502943    6.1003394    4.5879558 0.0094405775     2.127733    23.143722    28.828503 
 1734000   0.99962606    23.932583    4.5954747    1.4994353      6.09491     4.586291 0.0091836611    8.4822363    37.768599    40.173317 
 1737000    0.9985597    23.900509    4.5986106    1.4978358    6.0964464    4.5894214 0.0091892208   0.95405915    34.501397    46.018273 
 1740000    1.0001146    23.902365    4.5969107    1.5001682    6.0970789    4.5877307 0.0091799784    18.380515    22.535253    56.125854 
 1743000    1.0005938    23.870991    4.5980626     1.500887    6.0989496    4.5887045 0.0093581659    12.237133    3.0153662    20.922485 
 1746000    1.0010769    23.966383    4.5957401    1.5016116    6.0973517    4.5865958 0.0091442673     7.311869    26.914002    46.949045 
 1749000   0.99967064    23.928426    4.5964214    1.4995022    6.0959236    4.5877545 0.0086668754    22.648275    21.270272     60.24489 
 1752000    1.0014719    23.972129    4.5964087    1.5022041    6.0986128     4.587223 0.0091857232    10.294472    23.926824    46.942769 
 1755000    1.0013273    23.879737    4.5969693    1.5019872    6.0989565    4.5881095 0.0088598422     17.57912    29.355688    64.382421 
 1758000   0.99957667    24.006596    4.5938973    1.4993613    6.0932586    4.5848507 0.0090465883    5.5881078    34.467848    54.946414 
 1761000   0.99976322    23.927102    4.5958399    1.4996411     6.095481    4.5868988 0.0089410724    14.802263    1.0722035    18.834091 
 1764000    1.0008287    23.962771    4.5967246    1.5012393    6.0979639    4.5878815 0.0088431146    8.0782695     30.17831    52.478135 
 1767000      1.00084    23.962569    4.5983942    1.5012562    6.0996504    4.5891607 0.0092334987     24.93663    1.4494383    32.218354 
 1770000    1.0017418    23.990544    4.5987669    1.5026089    6.1013758     4.589518 0.0092489553     20.67241    18.028631    53.087821 
 1773000    1.0014444    23.968953    4.5977799    1.5021629    6.0999428    4.5890113 0.0087685645   0.40637653    33.410641    45.273317 
 1776000    1.0010552    23.962047     4.595243     1.501579     6.096822    4.5861095  0.009133526    28.504221    6.6930266    48.281523 
 1779000    1.0007103    23.896425    4.5958036    1.5010616    6.0968652    4.5864759 0.0093276261    24.236612    23.221772    65.100632 
 1782000    1.0000582    23.949546    4.5953813    1.5000836    6.0954649    4.5859045 0.0094767919    19.070976     4.117663    31.808817 
 1785000   0.99933028    24.003247    4.5986901    1.4989917    6.0976818    4.5892596 0.0094305179    23.076938    21.423487    61.043077 
 1788000     1.000508    23.997467    4.5990085    1.5007582    6.0997667    4.5896942 0.0093142688    2.4104022    41.562378    53.706387 
 1791000    1.0000225     23.95924    4.5965587      1.50003    6.0965888    4.5875124 0.0090463206    31.692428    10.935861    58.474991 
 1794000    0.9990691    23.864239     4.597669    1.4985999     6.096269    4.5886501 0.0090189055    15.688129      2.11877    24.426461 
 1797000   0.99827384    23.970612    4.5965459     1.497407    6.0939529    4.5873872 0.0091586676    11.206567    8.9210003    27.609818 
 1800000    1.0006893    23.952413     4.597532    1.5010302    6.0985622    4.5884286 0.0091033881    24.452895    2.0658638     36.37688 
 1803000   0.99982656    23.889044     4.595752    1.4997361    6.0954881     4.586444 0.0093079476    23.420346    24.387715    65.580298 
 1806000   0.99946013    23.922647    4.5982658    1.4991864    6.0974523    4.5891023 0.0091635436    22.588865    14.269726    50.560457 
 1809000    1.0033115    23.966708    4.5948388    1.5049635    6.0998023    4.5857862 0.0090526011    19.419944    19.854508    53.874392 
 1812000    1.0024479    23.892592    4.5952589    1.5036681    6.0989271    4.5863278 0.0089311667    11.863539    5.2247377    23.440698 
 1815000    1.0004757     24.00412    4.5989318    1.5007099    6.0996416    4.5890888 0.0098430128    21.942898    2.4481032    33.458146 
 1818000    1.0017553    23.888436    4.5972446    1.5026291    6.0998737    4.5880931 0.0091514797    20.166363    16.701489     50.57316 
 1821000    1.0016691    23.984775    4.5952354       1.5025    6.0977354    4.5861578 0.0090776819    41.756265    5.4392173    64.739998 
 1824000    1.0027287    23.961772    4.5976379    1.5040894    6.1017273    4.5877426  0.009895346    28.878068    1.5477479    37.490133 
 1827000    1.0005955    23.895173    4.5966443    1.5008895    6.0975338    4.5870195 0.0096247995    20.989504    13.279136    47.007714 
 1830000    1.0012784    23.900694     4.595696    1.5019139    6.0976099    4.5864988 0.0091972785    7.2530836    35.342445    58.430051 
 1833000    1.0009307    23.913819    4.5974387    1.5013923     6.098831    4.5882451 0.0091935834    9.9152342    16.604659    36.378436 
 1836000    1.0056216    23.922406    4.5975015    1.5084286    6.1059301      4.58838 0.0091215254    6.1030876    42.699268    50.200497 
 1839000   0.99926002    23.927538    4.5974968    1.4988863    6.0963831    4.5878392 0.0096576885    12.976564    20.367685    45.739687 
 1842000    1.0035168      23.9706    4.5969126    1.5052715    6.1021841    4.5880024 0.0089101171    6.9652555    6.4882435    18.454722 
 1845000    0.9994791    23.895598     4.596645    1.4992149    6.0958599    4.5877634  0.008881598    20.334628    17.831558    52.354139 
 1848000    1.0002381    23.971354    4.5979208    1.5003534    6.0982743    4.5882904 0.0096304486    15.184414    12.308328    37.712933 
 1851000    1.0010651    23.896641    4.5981943    1.5015939    6.0997883    4.5892196 0.0089747501    21.396244    23.645906    61.786184 
 1854000    1.0022777    23.990046     4.595216    1.5034128    6.0986288    4.5858962 0.0093197653    2.5740717    23.879645    36.287659 
 1857000    1.0012879    23.920659    4.5958523    1.5019282    6.0977804    4.5871605 0.0086917043    37.312139    6.4870339    60.081141 
 1860000    1.0003701    23.931302    4.5960273    1.5005515    6.0965788    4.5870553 0.0089720248    7.5874432    21.717599    40.198941 
 1863000    1.0029595    24.032249    4.5974128    1.5044356    6.1018483    4.5880604 0.0093523916    14.047458     18.98457    45.311401 
 1866000   0.99945587    23.882158    4.5983891    1.4991801    6.0975691    4.5892823 0.0091067594     11.48964    21.477957    45.223019 
 1869000    1.0000905    24.010624     4.597921     1.500132    6.0980531    4.5881054 0.0098156472    19.869101    15.835487    48.977462 
 1872000    1.0023119     23.92125    4.5981261     1.503464    6.1015902    4.5884304 0.0096956988    25.672021    10.483247    49.595679 
 1875000     1.000748     23.96686      4.59724    1.5011182    6.0983582    4.5881574 0.0090825828    31.733356    20.561501    71.735023 
 1878000   0.99999025    23.958994    4.5984213    1.4999816    6.0984029    4.5889773 0.0094440035    15.171372    9.1306089    33.336034 
 1881000    1.0004998    24.046504    4.5981167    1.5007459    6.0988626    4.5888346 0.0092820663    23.562313    2.8374508     36.21365 
 1884000    1.0029312    23.937123    4.5971329     1.504393     6.101526    4.5873033 0.0098296117    3.1543849    11.389821    11.296889 
 1887000    1.0016342    23.974984    4.5966549    1.5024475    6.0991024     4.587502  0.009152929    28.542452    24.511082    72.775731 
 1890000    1.0008702    24.001839    4.5963919    1.5013016    6.0976935    4.5872486 0.0091433518    11.640532    22.749804    47.174649 
 1893000    0.9994281    23.984118    4.5977166    1.4991384     6.096855    4.5880756 0.0096410316    14.032728    9.3599809    32.088748 
 1896000    1.0006056    23.919665    4.5951271    1.5009047    6.0960318     4.586216 0.0089111184    9.5462732    27.243436    50.465969 
 1899000    1.0005334    23.942383    4.5974863    1.5007963    6.0982826     4.588146 0.0093403558    27.792832    19.499909    64.873413 
 1902000    1.0028211    23.929945    4.5977525    1.5042279    6.1019804       4.5887 0.0090524417      26.2658    7.6611939    46.539063 
 1905000    1.0012035    23.939428    4.5954898    1.5018015    6.0972913    4.5862075 0.0092822974    17.956227    17.944367    49.246332 
 1908000    1.0016211    23.976029    4.5978878    1.5024278    6.1003156    4.5884854 0.0094024353    6.4602376    40.139323    63.922548 
 1911000     1.000365    24.001173    4.5963133    1.5005437     6.096857    4.5877726 0.0085406758    10.052668    8.4273658    25.349828 
 1914000    1.0010128    23.972344    4.5969039    1.5015155    6.0984193    4.5881403 0.0087635626    17.033134    14.017415    42.593324 
 1917000    1.0012919    23.974494    4.5983155    1.5019341    6.1002495    4.5885722 0.0097432164    18.027001    4.8630023    31.399166 
 1920000    1.0007846    23.900512    4.5961916    1.5011731    6.0973648    4.5868213 0.0093703358    12.809703    2.3207045    20.755007 
 1923000    1.0012161    23.941053    4.5972208    1.5018203    6.0990412    4.5877565 0.0094643182    19.852416    26.548637    63.650248 
 1926000    1.0030908      23.9351    4.5964467    1.5046324    6.1010791    4.5866895 0.0097571709    22.826351     9.225562    43.966938 
 1929000   0.99850629      23.9991     4.596781    1.4977557    6.0945367    4.5879712 0.0088098321    42.581988    13.252501    76.590482 
 1932000    1.0015191    23.985344    4.5994372    1.5022749    6.1017121    4.5901841 0.0092531403    28.336684    8.2594939    50.200493 
 1935000    1.0012697    23.938276    4.5969073    1.5019008    6.0988081    4.5878401 0.0090672226    24.304522    26.811096    70.117412 
 1938000    1.0011531    23.936286    4.5961015    1.5017259    6.0978275    4.5873495 0.0087520885    30.808141    3.2736015    46.751339 
 1941000    1.0037351    24.047199    4.5980206    1.5055988    6.1036194    4.5888187 0.0092019246    15.578754    9.7753042    34.779212 
 1944000    1.0019027    23.990196     4.600071    1.5028502    6.1029212    4.5904516  0.009619361    26.184841    3.6770349    40.962772 
 1947000    1.0021581    23.968928    4.5983104    1.5032335    6.1015438    4.5893322 0.0089781887    13.555728    11.438241    34.285263 
 1950000   0.99887901    23.899956    4.5961412    1.4983148    6.0944559    4.5875031 0.0086380281    28.605862    5.1073711    32.233854 
 1953000     1.001206    23.945732    4.5977635    1.5018052    6.0995687    4.5883803 0.0093832333    31.839647    25.072672    78.068986 
 1956000    1.0012851    23.961799    4.5982003    1.5019239    6.1001242    4.5890673 0.0091330131    9.3239843    27.678226    50.757465 
 1959000    1.0008018    23.921667    4.5973575     1.501199    6.0985565    4.5880488 0.0093086691    34.800913    10.722405    62.446222 
 1962000   0.99782644    23.975193    4.5970637    1.4967359    6.0937996    4.5880826  0.008981136    3.7085759    39.752435    59.617269 
 1965000    1.0021433    24.001576    4.5971339    1.5032112     6.100345    4.5873801 0.0097537611    14.715483    1.8871389    22.774504 
 1968000    1.0021434    23.977441    4.5954709    1.5032113    6.0986822    4.5866019 0.0088690112    8.8439261     19.74185    39.212293 
 1971000    1.0031647    24.054124    4.5966881    1.5047433    6.1014315    4.5877794 0.0089087617    2.3978997    16.139092    25.427959 
 1974000   0.99992313    24.007466    4.5959291    1.4998809      6.09581    4.5860697 0.0098593687    7.1446704     27.85679    28.411673 
 1977000    1.0017539    23.912072    4.5978944    1.5026271    6.1005215    4.5886695 0.0092248919    27.850192    15.139513     58.97076 
 1980000    1.0000088    23.983168    4.5969655    1.5000094    6.0969749    4.5878012 0.0091642799    19.658272     1.173677    25.356085 
 1983000    1.0012926    23.941348    4.5974793    1.5019351    6.0994144    4.5881099 0.0093693562    17.751879    23.505084    56.593885 
 1986000    1.0018542    23.988324    4.5975771    1.5027775    6.1003546    4.5881197 0.0094573435    1.7353939    13.501344    20.900865 
 1989000    1.0014803    23.941374    4.5974055    1.5022167    6.0996222    4.5881679 0.0092376736    13.010718    28.624739     57.11308 
 1992000    1.0017888    23.895336    4.5964242    1.5026795    6.0991037    4.5871879 0.0092363026    15.690059    12.559123    38.750574 
 1995000    1.0007077    24.013683    4.5965618    1.5010578    6.0976196    4.5873353 0.0092265316    12.736715    21.375391    46.792989 
 1998000    1.0002282    23.956838    4.5953502    1.5003385    6.0956887    4.5860085 0.0093416355    20.618934    5.3217581    35.583922 
 2001000    1.0028825    23.917103    4.5973197      1.50432    6.1016397    4.5883656 0.0089541339    26.233514     7.129503    26.205764 
 2004000    1.0026077    23.933886    4.5989265    1.5039078    6.1028343    4.5900334 0.0088931185    16.246309    17.667559    46.521057 
 2007000    0.9992468    23.925514    4.5957108    1.4988665    6.0945773    4.5866886  0.009022244    19.639713    21.041072    55.803519 
 2010000    1.0009785    23.988582    4.5972403     1.501464    6.0987043    4.5882393 0.0090010839     35.29962    4.2569201    54.261345 
 2013000    1.0022596     23.96249    4.5944418    1.5033856    6.0978274    4.5852375 0.0092043551    31.944033    1.1922348    45.454392 
 2016000    1.0001048    23.900147    4.5983414    1.5001534    6.0984948    4.5889986 0.0093427991    7.4093979    7.2212405    20.069453 
 2019000    1.0014252    24.007171    4.5970151    1.5021341    6.0991491    4.5872218 0.0097932213     15.82531    5.0509372    14.779654 
 2022000   0.99866028    23.968905    4.5961021    1.4979867    6.0940887    4.5869228 0.0091792663    6.3784263     19.89274    36.037247 
 2025000    1.0006407    23.985988    4.5974902    1.5009573    6.0984475    4.5881649 0.0093252806    27.884989    17.003447    61.575327 
 2028000   0.99856676    23.912314    4.5977664    1.4978464    6.0956128    4.5889104 0.0088559559    25.168363    15.144563    55.298911 
 2031000    1.0010028     24.01307    4.5983801    1.5015005    6.0998805     4.588977 0.0094030941    10.195026    25.655052    49.177039 
 2034000   0.99714413    23.906882    4.5985173    1.4957125    6.0942298    4.5892593 0.0092580097    7.5707149    1.0196597    8.9863538 
 2037000   0.99874966    23.901148     4.598932    1.4981207    6.0970527    4.5896994 0.0092325305   0.93359465    26.103079    34.526025 
 2040000    1.0012778    24.037906     4.598091     1.501913     6.100004    4.5888672 0.0092237431     8.205009    30.578648     53.20115 
 2043000   0.99974443    23.941893    4.5949623    1.4996129    6.0945752    4.5862762 0.0086861266    3.2833467    15.387057    16.603161 
 2046000    1.0003632    23.894429    4.5970175     1.500541    6.0975585    4.5880304 0.0089870975    26.449841    27.320537    73.759055 
 2049000    1.0001339     23.97995    4.5996596    1.5001971    6.0998566    4.5902638 0.0093957775    22.035611    4.6102783     36.55127 
 2052000    1.0012738    23.964667    4.5979904    1.5019069    6.0998973    4.5887055 0.0092848893    48.193524    16.649247    88.947516 
 2055000    1.0015816    23.891679     4.596873    1.5023687    6.0992417    4.5884932  0.008379757    26.961691    9.8082867    50.438903 
 2058000    1.0005276    23.980886    4.5967915    1.5007876    6.0975791     4.586826 0.0099654843    22.982051    13.499292     50.04297 
 2061000    1.0021658    24.007294    4.5975128    1.5032449    6.1007577    4.5881037 0.0094091168    11.230559    13.783912    34.313387 
 2064000   0.99988818    23.981585    4.5936258    1.4998285    6.0934543    4.5850163 0.0086094661    17.658654    23.062495    55.858887 
 2067000    1.0005538     23.97258    4.5956156    1.5008269    6.0964424    4.5864302 0.0091853715    26.753574    2.9032936    40.681555 
 2070000    1.0028788     23.86576    4.5959232    1.5043145    6.1002377    4.5862517 0.0096715015    17.621969    32.942834    69.361836 
 2073000   0.99991144    23.875898    4.5963412    1.4998634    6.0962046    4.5868685 0.0094727464    7.2587176      25.1259    44.423321 
 2076000    1.0012112    23.990504    4.5968632     1.501813    6.0986763    4.5880674 0.0087958124    11.448905    12.992339    33.527068 
 2079000    1.0010373    23.939218    4.5965656    1.5015523    6.0981179    4.5876121 0.0089534776     2.001418    15.466351    23.961263 
 2082000   0.99991279    23.898003     4.597105    1.4998654    6.0969704    4.5884468 0.0086582074    35.407622   0.39277063    49.108882 
 2085000     1.001393    23.943493     4.598051    1.5020858    6.1001368    4.5890116  0.009039334    8.2400809    20.046908    38.802434 
 2088000    1.0008275    23.935524    4.5978851    1.5012375    6.0991227     4.588682 0.0092031749    18.724971    16.956691    48.946015 
 2091000    1.0017458    24.068424    4.5967214     1.502615    6.0993364    4.5873694 0.0093519808    21.035744    15.966655    50.757725 
 2094000     1.000309    23.967435    4.5992167    1.5004598    6.0996765    4.5900286 0.0091880594    27.555671    15.552894    59.133805 
 2097000    1.0018588    23.913142    4.5978816    1.5027845    6.1006661    4.5886088 0.0092728581    4.7224652    14.423584     26.26343 
 2100000    1.0015868    23.986669    4.5963742    1.5023765    6.0987507    4.5875036 0.0088705525    12.298194    24.032352    49.836115 
 2103000    1.0013471    23.987432    4.5987149     1.502017    6.1007319    4.5893409 0.0093740633    3.8545253    22.045901    35.528688 
 2106000   0.99874195    23.892504    4.5976125    1.4981092    6.0957217    4.5887136 0.0088988958    12.865626    32.154032    61.755332 
 2109000    1.0006979    23.889579    4.5982676    1.5010431    6.0993107    4.5894824 0.0087851868    20.184495    15.198895    48.536862 
 2112000   0.99953814    23.841147    4.5962509    1.4993035    6.0955544    4.5872788 0.0089721563    34.015969    11.705792    62.718434 
 2115000   0.99939403    23.989801     4.595298    1.4990873    6.0943853    4.5857929 0.0095051798     11.23876    23.580225    47.762645 
 2118000   0.99738712    23.877299    4.5954999    1.4960769    6.0915768    4.5863656 0.0091342855    22.852318    12.904723    49.049414 
 2121000    1.0020289    23.990172    4.5964992    1.5030396    6.0995388    4.5872534 0.0092458172    20.097285    17.877643    52.091782 
 2124000    1.0007829    23.905489    4.5969915    1.5011706    6.0981621    4.5879122 0.0090793481    13.543989    15.654313    40.052521 
 2127000    1.0004329      24.0274    4.5966084    1.5006457     6.097254    4.5878925 0.0087158948    19.860203    36.457337    77.253102 
 2130000    1.0007348    23.947339    4.5976784    1.5010985    6.0987769    4.5881272 0.0095511678    7.8472445    19.506504     37.52227 
 2133000    1.0021249    23.931599     4.595604    1.5031837    6.0987877    4.5868602 0.0087438801   0.86013501     22.97225     32.69187 
 2136000    1.0009714    23.959998    4.5963467    1.5014533       6.0978    4.5872634 0.0090832632    6.9051733    22.748697    21.733218 
 2139000   0.99938857    23.911548    4.5978953    1.4990791    6.0969744    4.5883395 0.0095557863    3.4689925    35.731961    53.773572 
 2142000    1.0005132    23.850234    4.5979937     1.500766    6.0987597    4.5889465 0.0090472571    5.3341071    7.9010133    18.155163 
 2145000    1.0002686    23.938786    4.5978903    1.5003992    6.0982895    4.5889442 0.0089461349    25.116263    31.443752    77.585716 
 2148000    1.0020189    23.920678    4.5975991    1.5030246    6.1006237    4.5880485  0.009550568    20.528074    11.098903    43.384036 
 2151000    1.0021819    24.042048    4.5968921    1.5032691    6.1001612    4.5875342 0.0093579648    13.856084  0.044883198    18.945396 
 2154000   0.99998238    23.909142    4.5972478    1.4999698    6.0972176     4.587958 0.0092897617    2.4576552    27.978016    35.007336 
 2157000    1.0020571    24.002075    4.6001437    1.5030818    6.1032256     4.590957 0.0091867403    11.105213    14.091435    34.563285 
 2160000    1.0014888    23.899008     4.597821    1.5022294    6.1000505    4.5889813 0.0088396592    36.938191    22.091451    80.973405 
 2163000     1.001914    23.949887    4.5965386    1.5028673    6.0994059    4.5875591 0.0089795635    26.186438    11.157311    51.225969 
 2166000    1.0011793    23.950465      4.59685    1.5017651    6.0986151    4.5872428 0.0096072166    4.3186504    26.494513    42.267692 
 2169000    1.0019277    23.987153    4.5969993    1.5028878    6.0998871     4.588163  0.008836306    19.570093    17.540922    50.906717 
 2172000   0.99898129    23.926735    4.5959088    1.4984682     6.094377    4.5860659 0.0098428249     26.44656    10.591636    50.806828 
 2175000    1.0002785    23.943144     4.597157    1.5004139    6.0975709    4.5882778 0.0088791349    16.112609    4.6436596    28.472233 
 2178000   0.99949221    23.897143    4.5972633    1.4992346    6.0964979    4.5870995  0.010163779    13.454515    18.569629    43.928845 
 2181000    1.0011513    23.952441    4.5953735    1.5017232    6.0970966    4.5869109 0.0084626042     29.60983    26.054845    76.357541 
 2184000    1.0007892    23.968019    4.5964269      1.50118    6.0976069    4.5873629 0.0090639124    26.576196    3.6532318    41.466958 
 2187000   0.99998632    23.969587    4.5986792    1.4999757    6.0986549    4.5897271 0.0089520994    48.328565    5.6845201    58.496604 
 2190000    1.0017784    23.965786    4.5965861    1.5026638    6.0992499    4.5869887 0.0095973699    12.178215    27.116673    53.902426 
 2193000    1.0041291    23.999341    4.5943045    1.5061899    6.1004944    4.5847155 0.0095890181    18.654253    21.325007    54.841208 
 2196000    1.0016451    23.945298    4.5957584    1.5024639    6.0982223    4.5864296 0.0093287517    27.976637    15.701486    59.915092 
 2199000    1.0027926    23.992805     4.595637    1.5041852    6.0998222    4.5865678 0.0090692321    17.017455    40.239027    78.541089 
 2202000    1.0006863    23.968511     4.597063    1.5010258    6.0980888    4.5879705 0.0090924793    26.422808    21.403525    65.605364 
 2205000    1.0024705    23.914084    4.5967577     1.503702    6.1004597    4.5877634 0.0089943248    10.054558    32.797164    31.196975 
 2208000    1.0013651    23.963693    4.5960728     1.502044    6.0981167    4.5869688  0.009103933    17.553492    9.5425079    37.168706 
 2211000    1.0009305    23.921349    4.5959169    1.5013919    6.0973088    4.5869454 0.0089714704    6.7651272    14.054099    28.558595 
 2214000    1.0020933    24.031532    4.5974481    1.5031362    6.1005843    4.5878544 0.0095937098    26.208276    20.299342    63.796427 
 2217000    1.0003841    23.966822    4.5980155    1.5005724    6.0985879    4.5886379 0.0093776266    4.8042187    33.513021    52.561345 
 2220000     1.003626    23.912121    4.5983905    1.5054352    6.1038258    4.5889621 0.0094283929    25.491778    2.7918251    31.138466 
 2223000    0.9994498    23.896646    4.6006415     1.499171    6.0998124     4.590782 0.0098594304    13.453809     3.745532    13.317246 
 2226000    1.0026064    23.964365    4.5967223    1.5039059    6.1006282    4.5875926 0.0091297658    19.524185    21.632434     56.45624 
 2229000   0.99969642    23.974208    4.5989645    1.4995409    6.0985054    4.5891289  0.009835628    14.951757    3.6092631    25.460921 
 2232000   0.99871838    23.905388    4.5964155    1.4980738    6.0944894    4.5872917  0.009123799    30.160298    6.6099098    50.439218 
 2235000    1.0035344    23.956297    4.5942821    1.5052978    6.0995799    4.5857579 0.0085241776     29.68391    8.2794172     29.36143 
 2238000    1.0006476    23.874379    4.5961998    1.5009676    6.0971674    4.5870449 0.0091549252     4.900908    6.4568821    15.579951 
 2241000    1.0002784    23.918102    4.5955798    1.5004139    6.0959937    4.5864047 0.0091751131    9.4805982    15.562174    34.352208 
 2244000   0.99896977    23.900217    4.5991908    1.4984509    6.0976417    4.5897136 0.0094772311    29.751167    11.615119    56.743849 
 2247000    1.0012554    23.999375    4.5994501    1.5018793    6.1013294    4.5899357  0.009514423    2.3185062     24.71896    37.088413 
 2250000    1.0021636    23.989108    4.5995895    1.5032417    6.1028312    4.5901687 0.0094207542     6.722483    45.836696    72.097603 
 2253000    1.0017306    23.922977    4.5965747    1.5025922    6.0991669    4.5875223 0.0090523523    16.102481    33.888344    68.574487 
 2256000    1.0015946    23.961254    4.5965839    1.5023882    6.0989721     4.587925 0.0086589011    19.489718    26.079426    62.509083 
 2259000   0.99993608    23.964081    4.5959999    1.4999004    6.0959002    4.5867999 0.0091999906    6.1266667     16.02128    30.381257 
 2262000   0.99908537    23.969758      4.59656    1.4986243    6.0951843    4.5868747 0.0096853205    5.5970388    30.821491    49.956807 
 2265000    1.0010035    23.915832    4.5982742    1.5015015    6.0997758    4.5886506 0.0096236118    10.989956    14.262691    34.640102 
 2268000    1.0006316     23.99918    4.5942779    1.5009437    6.0952216    4.5857288 0.0085491025    4.7670821    17.439926    30.462273 
 2271000      1.00166    23.934311    4.5999166    1.5024863    6.1024029    4.5901362 0.0097804616    3.2441577    25.555068    39.505091 
 2274000    1.0016249    23.925668     4.595327    1.5024335    6.0977606    4.5858017 0.0095253437    29.749289    12.226056    57.579321 
 2277000   0.99979622    23.951119    4.5982577    1.4996906    6.0979483    4.5888009 0.0094568584    4.0811668    34.872119    53.433836 
 2280000    1.0012401    23.956529    4.5962315    1.5018564    6.0980879    4.5873044 0.0089270908    14.887572    9.0928605    32.894953 
 2283000    1.0020333    23.954888    4.5980756    1.5030462    6.1011218    4.5883119 0.0097636682    17.474567    12.475524    41.083782 
 2286000   0.99934928    23.886587    4.5963311    1.4990202    6.0953513    4.5872739 0.0090572076    5.1976467    41.415091    49.680969 
 2289000    1.0011136    23.982012    4.5964791    1.5016666    6.0981458    4.5872037 0.0092754763    10.949371     29.11182    54.953596 
 2292000    1.0023144    24.003052    4.5974073    1.5034679    6.1008752    4.5879772 0.0094300868    12.836279    9.1564917    30.168395 
 2295000   0.99842882    23.964888    4.5955639    1.4976395    6.0932034    4.5863785 0.0091854274    24.072904     15.46755    54.239279 
 2298000    1.0002163    23.926858     4.597156    1.5003207    6.0974768    4.5877111 0.0094449603    8.5666138    38.373421    40.887232 
 2301000     1.000142     23.98787    4.5989254    1.5002092    6.0991347    4.5893947 0.0095307199    10.928606    17.107421    8.4757363 
 2304000   0.99973628    23.965505    4.5977504    1.4996007    6.0973511    4.5887196 0.0090308391    3.3478405    27.342084    32.913898 
 2307000    1.0004221    24.049698    4.5974434    1.5006295    6.0980728    4.5883993 0.0090441076     10.20275    19.732261    41.063096 
 2310000    1.0005809    23.869418    4.5966548    1.5008676    6.0975224    4.5878299 0.0088248833    4.7181599    22.174184    36.889343 
 2313000      1.00132    23.894957    4.5945162    1.5019762    6.0964924    4.5856645 0.0088516977    2.0930142    33.369537    42.903302 
 2316000    1.0033689    23.895543    4.5976588    1.5050496    6.1027085     4.588467 0.0091918563    3.0223083     22.34425    26.504708 
 2319000   0.99796062    23.933234    4.5975578    1.4969372    6.0944949    4.5887547  0.008803068    2.6724079    9.4696227    16.655726 
 2322000    1.0019093    23.994568    4.5985745    1.5028602    6.1014347    4.5889541 0.0096203602    20.127543    6.4996898     18.69389 
 2325000    1.0006637    23.997852    4.5974138    1.5009918    6.0984056    4.5880303 0.0093834297    25.318653    22.354643    65.395436 
 2328000    1.0012151    23.938754    4.5976292    1.5018189    6.0994481    4.5883399 0.0092892507    24.149198    12.673979    50.511877 
 2331000    1.0032792    23.965046    4.5953784     1.504915    6.1002933     4.586414 0.0089643501    17.055287    27.337073    60.894839 
 2334000   0.99907025     23.94244    4.5960757    1.4986016    6.0946773    4.5866698  0.009405852    7.5926709    20.816557    38.970115 
 2337000    1.0023559    24.015286    4.5970868    1.5035301    6.1006169     4.587812  0.009274807    16.655617    1.7770764     20.40951 
 2340000   0.99932842    23.924076    4.5974176    1.4989889    6.0964065    4.5877634 0.0096542187    38.867193    4.9410796    46.537855 
 2343000   0.99956625     23.98263    4.5969135    1.4993456    6.0962592    4.5879208 0.0089927323  0.049959677    16.509226    22.714921 
 2346000    1.0001761    23.947648    4.5954392    1.5002603    6.0956996    4.5865059  0.008933264    20.878355     2.265962    31.748018 
 2349000    1.0017239    23.937233    4.5973012    1.5025821    6.0998833    4.5879365  0.009364677    22.097482    12.628774    47.635444 
 2352000   0.99978502    23.964213    4.5966941    1.4996738    6.0963679    4.5872985 0.0093956078    31.550145    24.454768    76.824259 
 2355000    1.0010138    23.923721     4.597206    1.5015169    6.0987229    4.5884384  0.008767572    25.199846    17.522931    58.604604 
 2358000    1.0006064    24.003076     4.596562    1.5009059    6.0974678    4.5868972 0.0096647403    9.3655616    41.968411    70.416937 
 2361000    1.0003902    23.863032    4.5965025    1.5005815     6.097084    4.5864103  0.010092213     14.66293    4.3790147    26.120625 
 2364000    1.0002703    23.969025    4.5980122    1.5004017     6.098414    4.5888111 0.0092011035    14.377202    21.046411    48.592038 
 2367000    1.0002308    23.887057    4.5944621    1.5003424    6.0948045    4.5853274 0.0091347375    9.1143093    30.979643    29.993585 
 2370000    1.0007475    23.941979    4.5954965    1.5011176    6.0966141     4.586053 0.0094435677    35.058243    7.2902876    58.091235 
 2373000    1.0006295    23.902527    4.5988169    1.5009406    6.0997574    4.5890965 0.0097203188    14.092454    12.888323     37.01065 
 2376000    1.0024315    23.853692    4.5970179    1.5036434    6.1006613    4.5883628 0.0086551446    12.540639    28.641145     56.49076 
 2379000    1.0005201    23.949246    4.5950341    1.5007764    6.0958105    4.5857551  0.009279026   0.53498283    17.664646    24.965185 
 2382000   0.99869672    23.975362    4.5936175    1.4980413    6.0916588    4.5846556 0.0089619063    15.266234    7.1879053    30.801273 
 2385000    1.0021549     23.92436    4.5976234    1.5032286     6.100852    4.5879763 0.0096470214    35.664703    7.9895239    59.882312 
 2388000     1.003116    23.966901    4.5970287    1.5046702    6.1016989     4.588072  0.008956765    11.940573    14.624499     36.44041 
 2391000    1.0019032    23.918929    4.5981215    1.5028511    6.1009726    4.5887118 0.0094096507      10.4377    30.180166     55.71721 
 2394000    1.0018032      24.0719    4.5962055    1.5027011    6.0989066    4.5867397 0.0094657766    31.480228    14.502432     63.07632 
 2397000   0.99984146    23.927974    4.5957534    1.4997584    6.0955119    4.5866247 0.0091287345    4.1362507    24.455662    39.220712 
 2400000   0.99967674    23.959629    4.5939303    1.4995114    6.0934417    4.5854316 0.0084987399    29.805652    6.9286333    50.389941 
 2403000    1.0019876     23.96854    4.5950451    1.5029776    6.0980227    4.5862042  0.008840977     2.571255    19.409801    30.152325 
 2406000   0.99876676    23.988609    4.5984652    1.4981464    6.0966116    4.5887765 0.0096886821    29.051361    5.0807606    46.820445 
 2409000   0.99975491    23.935079    4.5950867    1.4996286    6.0947153    4.5860071 0.0090795895    10.160106    31.401452    57.011712 
 2412000    1.0008168    24.033625    4.5982155    1.5012214    6.0994369    4.5883943 0.0098211357    17.124606    25.382223    58.308379 
 2415000    1.0014672    23.947692    4.5948856    1.5021971    6.0970827    4.5855123  0.009373259    41.921783    9.0276497    69.889448 
 2418000    1.0006489    23.927283    4.5963914    1.5009695    6.0973609    4.5870928 0.0092985658    3.8388888    32.159636    49.380669 
 2421000    1.0006604    23.992271    4.5953327    1.5009869    6.0963196    4.5858164 0.0095162625    15.871628    10.780752    6.9833656 
 2424000    1.0021235    23.925897    4.5954139    1.5031815    6.0985954    4.5865317 0.0088822046    20.870354     7.494547     38.90931 
 2427000    1.0009216    23.992401    4.5955153    1.5013787     6.096894    4.5860306 0.0094847088    32.483946     13.23942    26.398514 
 2430000   0.99999208    23.970327    4.5954946    1.4999844     6.095479    4.5871133 0.0083813425    4.0776439     23.85278    27.126374 
 2433000   0.99984729    23.986136    4.5971249    1.4997672    6.0968921    4.5876806 0.0094442749    24.032546   0.65533442    33.865389 
 2436000   0.99861918    23.967687    4.5958852     1.497925    6.0938102    4.5871427 0.0087424828    18.409197    18.021898    49.974042 
 2439000    1.0013574    23.908604     4.597467    1.5020324    6.0994994    4.5885418 0.0089252379    31.993898    0.5625906    44.659085 
 2442000    1.0001971    23.895413    4.5990386     1.500292    6.0993306    4.5897602 0.0092784145    39.324927    6.0634604    62.261132 
 2445000    1.0020093    24.006221    4.5982195    1.5030102    6.1012298    4.5894085 0.0088110453    15.004971    24.722718    54.496116 
 2448000    1.0016741    23.987631    4.5985735    1.5025074    6.1010809    4.5893935 0.0091800855    22.996627    14.188274    51.008069 
 2451000    1.0008255    23.925799    4.5999017    1.5012345    6.1011362    4.5903366 0.0095650638    10.469195    28.778008    53.837015 
 2454000    1.0021635    23.947041    4.5956549    1.5032414    6.0988964     4.586763 0.0088919811    6.2820665    24.996404    42.905975 
 2457000    1.0019161     23.88335    4.5964323    1.5028704    6.0993027    4.5869736 0.0094587039    8.0032979    43.535372    70.697729 
 2460000    1.0008611    23.952617     4.597718    1.5012878    6.0990058    4.5884177 0.0093002772    26.884887    17.663935    61.109465 
 2463000   0.99999743    23.938742    4.5965889    1.4999924    6.0965813     4.587557 0.0090318483    0.6096714    14.939955    21.330067 
 2466000    1.0009983    24.014143    4.5969919    1.5014937    6.0984856    4.5873813 0.0096105659    4.4562866    19.634674    33.046569 
 2469000    1.0014263    23.964875    4.5966691    1.5021357    6.0988048    4.5874376 0.0092315325      32.0591    7.5847553    54.381119 
 2472000    1.0000104    23.936759    4.5957897    1.5000119    6.0958016    4.5866482 0.0091415065    15.069327    9.3380712     33.48064 
 2475000    1.0025724    23.929532     4.597109    1.5038548    6.1009638    4.5882143 0.0088947073    11.376478    4.0290736    21.132433 
 2478000     1.001388    23.953058    4.5953311    1.5020782    6.0974093    4.5860212 0.0093098733    17.577509    26.948826     61.07862 
 2481000   0.99962077    23.859682    4.5981493    1.4994274    6.0975767    4.5891175 0.0090318713    9.6543983    19.543017    40.051304 
 2484000    1.0009688    23.961648    4.5995948    1.5014495    6.1010443    4.5900973 0.0094974655    19.027945    15.367773    47.182031 
 2487000    1.0007998    23.941465    4.5994928     1.501196    6.1006888    4.5898282 0.0096646004    28.511531    5.0920505    32.125471 
 2490000     1.001033    24.055768    4.5966283    1.5015458    6.0981741    4.5873358 0.0092924866    8.6869105    29.257051    28.216914 
 2493000   0.99911158    23.984308    4.5959488    1.4986636    6.0946124    4.5874412 0.0085076229    24.316671    8.2877212    44.724795 
 2496000    0.9998095    23.971192    4.5988444    1.4997105    6.0985549    4.5890174 0.0098269814    7.4980908    11.061839    25.459425 
 2499000    1.0005931    23.987585    4.5982212    1.5008859    6.0991071    4.5891785 0.0090426528    35.019377   0.25407907       47.689 
 2502000    1.0018645    23.973958    4.5971588     1.502793    6.0999518    4.5884567 0.0087020667     11.20609    23.646789    47.809138 
 2505000    1.0004121    24.034847    4.5961504    1.5006144    6.0967647    4.5870432 0.0091071385    7.1659527    17.986872    34.503172 
 2508000    1.0002907    23.940968    4.5973174    1.5004323    6.0977497    4.5879566 0.0093607746    21.283597    21.746974    59.026817 
 2511000    1.0001917    23.916342    4.5971874    1.5002839    6.0974713    4.5873325  0.009854925    13.745674    26.130057    54.699193 
 2514000    1.0018562    24.016432    4.5968582    1.5027805    6.0996388    4.5869637 0.0098945474    21.794265    29.975484    71.014709 
 2517000    1.0006667    23.969899    4.5986337    1.5009963      6.09963    4.5890821 0.0095515481    21.945794     5.863215     38.14677 
 2520000    1.0004945    23.993778    4.5967655     1.500738    6.0975035     4.587596 0.0091695079    27.689335    5.9020162    46.078648 
 2523000    1.0023943    23.959214    4.5955164    1.5035878    6.0991041    4.5864832 0.0090331689    8.9563907    27.349534    49.802341 
 2526000     0.997893    23.953809    4.5955311    1.4968358    6.0923668    4.5866537 0.0088773445    24.223054    6.2647966    24.634085 
 2529000    1.0017121    23.936835    4.5966596    1.5025643    6.0992239    4.5875828 0.0090767958    17.033894    24.694363    57.240379 
 2532000   0.99905832    23.953888    4.5979624    1.4985837    6.0965461    4.5887799 0.0091824806    12.152799    35.730213    32.342116 
 2535000    1.0001162    23.958272    4.5974764    1.5001705    6.0976469    4.5884804  0.008995941    32.342626    19.800228    71.526513 
 2538000    1.0013093    23.881043    4.5967818    1.5019602    6.0987421    4.5877788  0.009003052     18.04286    8.2869683    36.117716 
 2541000    1.0004955    23.948984    4.5987835    1.5007395     6.099523    4.5893782  0.009405228    20.324311    17.017656    51.223524 
 2544000    1.0006585    23.897333    4.5969825    1.5009841    6.0979666    4.5884327 0.0085498453    2.7912612    36.889625    46.774139 
 2547000    1.0016622    23.986902    4.5978011    1.5024895    6.1002906     4.588425 0.0093760691    7.8541539    12.104097     27.37756 
 2550000    1.0006646    23.944496     4.595115    1.5009932    6.0961082    4.5863246 0.0087903824    27.595687    36.051739    87.307812 
 2553000    1.0014668    23.917364    4.5964634    1.5021964    6.0986598    4.5870539 0.0094095735    23.508187    20.802978    60.783462 
 2556000    1.0022936     23.89282    4.5978556    1.5034366    6.1012922    4.5884955 0.0093601123    31.272522    5.1176772    49.917944 
 2559000    1.0017362    23.948456     4.600383    1.5026005    6.1029836    4.5905649 0.0098181489    7.7591205    15.706896    32.189308 
 2562000    1.0013193    23.960948    4.5976368    1.5019752     6.099612    4.5879779  0.009658932    23.680166     4.588448    38.777229 
 2565000    1.0010824    23.998428    4.5950232    1.5016199    6.0966431    4.5859712  0.009052047    9.2543344    31.789488    56.301512 
 2568000    1.0003937    23.982393    4.5976425    1.5005868    6.0982294    4.5886895 0.0089530018     1.373199    28.075509    36.628665 
 2571000   0.99965381    23.848692    4.5976258     1.499477    6.0971028    4.5882912  0.009334621    21.431664    9.2831055    42.132722 
 2574000    1.0016191    23.940941    4.5980763     1.502425    6.1005013    4.5892865 0.0087897836    25.190317    8.5377368    46.266168 
 2577000   0.99921934    23.953813    4.5966269    1.4988253    6.0954521    4.5875254  0.009101425    26.727436    9.6711891    23.396761 
 2580000    1.0004932    23.912715    4.5961608    1.5007361    6.0968969    4.5869741 0.0091866873    16.843158    10.286197    8.9944558 
 2583000    1.0043488     23.99072    4.5952515    1.5065195     6.101771    4.5864153 0.0088362479    14.458132    32.044902    63.790139 
 2586000     1.001677     23.98585    4.5954378    1.5025118    6.0979496    4.5863229 0.0091149368    9.3317251    18.219503    37.793162 
 2589000    1.0015132    23.963609    4.5973955     1.502266    6.0996614    4.5879852 0.0094102689    8.2915138    37.308576    62.551532 
 2592000   0.99955955    23.952547    4.5951292    1.4993356    6.0944648    4.5860635 0.0090657322    27.380065    7.4444691    47.770257 
 2595000   0.99953651    23.920655    4.5945627     1.499301    6.0938637    4.5855724 0.0089902675    6.5195509    24.327833    42.314634 
 2598000   0.99949412     23.92497    4.5978355    1.4992374    6.0970729    4.5882076 0.0096279003    9.8661789    32.761082     58.47358 
 2601000    1.0000343     23.93345    4.5959698    1.5000477    6.0960175     4.586667  0.009302755    14.373075    32.430566    64.202494 
 2604000    1.0010121    23.967899    4.5963546    1.5015143    6.0978689    4.5874544 0.0089002346    5.1991273    27.216825    44.466305 
 2607000    1.0017541    23.893452    4.5960159    1.5026274    6.0986433    4.5867326 0.0092832299    7.4867076     45.70051     72.95911 
 2610000    1.0021515    23.990246    4.5975987    1.5032234    6.1008222    4.5881849 0.0094138579    33.492784    2.9675285    50.014121 
 2613000    1.0006835     23.99695    4.5950511    1.5010216    6.0960727    4.5857194 0.0093317348    14.706097    23.123765     51.89279 
 2616000    1.0032059    24.040392    4.5945402    1.5048051    6.0993453    4.5854294  0.009110819    21.441199    5.2080202    36.555839 
 2619000   0.99885032    23.886905    4.5985229    1.4982717    6.0967947    4.5893903 0.0091325751    1.5212407    21.630147     27.58422 
 2622000     1.001808     23.95593    4.5966751    1.5027083    6.0993833    4.5874482 0.0092268545    1.4767655    23.168386    33.806776 
 2625000    1.0001206     23.95394    4.5956938    1.5001771    6.0958709    4.5862961  0.009397678    11.861954     18.07218    41.061892 
 2628000    1.0015843    23.940975    4.5976456    1.5023727    6.1000183     4.587822 0.0098235715    26.510796    28.239599    75.103386 
 2631000    1.0004365    23.856738    4.5982902    1.5006511    6.0989413    4.5883151 0.0099751194    9.2096591    28.794541    52.131936 
 2634000   0.99933996    23.889086    4.5985837    1.4990062    6.0975899    4.5885967  0.009987035    29.825141    9.0125984    53.275336 
 2637000    1.0025937    23.956719    4.5954192    1.5038868    6.0993059    4.5862528 0.0091663809    19.744058    4.5099324    33.270203 
 2640000   0.99858067    23.927414    4.5964748    1.4978673     6.094342    4.5873949 0.0090798795    5.1396583     19.81849    20.135561 
 2643000     1.002647    23.923311    4.5976831    1.5039668    6.1016499    4.5883517 0.0093313765    23.726553     22.00033     62.72546 
 2646000    1.0029843    23.977959    4.5940313    1.5044728     6.098504    4.5852006 0.0088306079    7.2528569    40.334892    65.278087 
 2649000    1.0004909    24.007053    4.5961886    1.5007326    6.0969212     4.586589 0.0095995343    12.300219    17.282512    40.579857 
 2652000    1.0009585    23.984566    4.5961787     1.501434    6.0976127    4.5871435 0.0090351752     2.015173    18.782969    28.529674 
 2655000   0.99968366    23.939168    4.5948284    1.4995217    6.0943501     4.585302 0.0095263505    7.8850668    5.4146308    18.243746 
 2658000   0.99974343    23.899307    4.5980186    1.4996114      6.09763    4.5886691 0.0093494862    25.493266    32.974143    80.202168 
 2661000   0.99929893    23.910466    4.5989687    1.4989446    6.0979133    4.5891577 0.0098110208    5.0624352    26.440818    43.214318 
 2664000    1.0003324    23.911568    4.5964814    1.5004949    6.0969763    4.5875157 0.0089657419    2.2874495    24.621439    36.912037 
 2667000   0.99891871    23.961096    4.5978524    1.4983743    6.0962268    4.5888824 0.0089700065     27.53638    4.9474827    44.559461 
 2670000    1.0019732    23.950657    4.5961281     1.502956    6.0990841    4.5871712 0.0089569045     20.92465    14.956117    49.219135 
 2673000    1.0005037     23.93763     4.594378    1.5007518    6.0951298      4.58468 0.0096979849    3.5004186    41.633417    61.911952 
 2676000   0.99773624    23.940922    4.5948988    1.4966006    6.0914995    4.5859384 0.0089604204    19.478272    32.510993    71.315829 
 2679000    1.0008313    23.977433    4.5990688    1.5012432    6.1003119    4.5897095 0.0093592804    15.821611    17.444677    45.632746 
 2682000    1.0006696    23.872022    4.5976471    1.5010007    6.0986478     4.588232 0.0094151529    7.7813951    18.039119    35.419069 
 2685000     1.001692    23.888507    4.5955711    1.5025343    6.0981054    4.5865097 0.0090613993    4.0860261    24.273064    38.901339 
 2688000    1.0052856     24.02132    4.5975533    1.5079247     6.105478    4.5883923 0.0091609842     22.22112    24.952743    64.710344 
 2691000    1.0029181    23.938809    4.5995917    1.5043733    6.1039651    4.5898978 0.0096939138    21.813079    14.344371    49.598671 
 2694000   0.99884619    23.923684    4.5980144    1.4982655    6.0962799    4.5885817 0.0094326518    26.300114    10.180109    50.041433 
 2697000    1.0008004    23.926483    4.5951394    1.5011969    6.0963363    4.5858454 0.0092939778    19.015953    5.3464976    33.418983 
 2700000     1.002989    23.986732    4.5936566    1.5044798    6.0981363    4.5842318 0.0094247175    49.110505      2.17284     70.34749 
 2703000    1.0005871    23.943834    4.5998617    1.5008769    6.1007386    4.5901006 0.0097611256    1.7956898    32.960484    47.676484 
 2706000   0.99983519    23.957019    4.5953707     1.499749    6.0951197    4.5860589 0.0093118119  0.080003761    14.588301    20.121122 
 2709000   0.99990554    23.894344    4.5960756    1.4998546    6.0959302    4.5866321 0.0094435194    14.575714    8.4829544    31.630531 
 2712000    1.0033044    23.929542    4.5960092    1.5049528     6.100962    4.5870533  0.008955947    16.565158    9.8736037    36.267145 
 2715000   0.99952541    24.017012    4.5974376    1.4992844    6.0967219    4.5882981  0.009139462    3.4738199    19.537409    22.035091 
 2718000    1.0005219    23.977969    4.5972593    1.5007791    6.0980384    4.5879286 0.0093306703    25.080543    1.6475564    32.143999 
 2721000    1.0021017    23.993796    4.5969822    1.5031488     6.100131    4.5877508 0.0092313224    27.001656     2.993397    32.933123 
 2724000    1.0019335    23.972015    4.5988499    1.5028965    6.1017464    4.5887788  0.010071163    20.663636    11.080085    43.544177 
 2727000    1.0004606    23.932374    4.5962568    1.5006872    6.0969439    4.5872892 0.0089675171    6.1382897    19.307928    34.905632 
 2730000    1.0027561    23.987867     4.595262    1.5041304    6.0993925    4.5862852 0.0089768092    14.788435   0.20443459     20.56634 
 2733000    1.0012325    23.980629    4.5956364     1.501845    6.0974813    4.5864669 0.0091694745    22.943254    2.0898493    34.338946 
 2736000    1.0011059    23.952017    4.5993261    1.5016551    6.1009812    4.5900233 0.0093028066    13.411693    20.204757    46.113078 
 2739000     1.000748    23.971763    4.5982022    1.5011183    6.0993205    4.5892704  0.008931841    6.8581477    6.6025398    18.464583 
 2742000     1.003179    24.002006    4.5973766    1.5047648    6.1021413    4.5877693 0.0096072418    7.4914485    17.897831    34.827526 
 2745000    1.0005796    24.000959    4.5963577    1.5008656    6.0972233    4.5870014 0.0093562524    13.238875    31.502127    61.373087 
 2748000     1.002723    23.888191     4.594579    1.5040808    6.0986598    4.5855448 0.0090342126    26.519175    23.030658    67.969559 
 2751000   0.99987385    23.864064    4.5972555     1.499807    6.0970625    4.5876347 0.0096207334    10.377853    22.753496    45.447644 
 2754000   0.99983216    23.888589    4.5964106    1.4997445    6.0961551    4.5881766 0.0082339554    15.427034    19.856821    48.400326 
 2757000    1.0043049    23.932802     4.600724    1.5064535    6.1071776    4.5914989 0.0092251073   0.34066646     11.18457    15.809644 
 2760000   0.99979686     23.94209    4.5953356    1.4996916    6.0950272    4.5866827 0.0086529189    39.362456    15.152499    33.209802 
 2763000   0.99947221     23.90946    4.5972952    1.4992046    6.0964998    4.5886088  0.008686496    37.900701     16.37192    74.448003 
 2766000   0.99930699    23.964915    4.5966674    1.4989567    6.0956241    4.5871378 0.0095295672    24.474288    9.9669113     47.24442 
 2769000    1.0004302    23.881345    4.5980363    1.5006416    6.0986778    4.5892285 0.0088077538     38.95198    1.8471453     55.96585 
 2772000    1.0015593      23.9945    4.5995951    1.5023351    6.1019302    4.5896848 0.0099103043    30.992327    6.3175679     33.84739 
 2775000   0.99996146    23.907423     4.597502    1.4999384    6.0974404    4.5881209 0.0093810465    36.676055    1.7800599    52.751846 
 2778000   0.99959389     23.95665    4.5945922    1.4993871    6.0939793    4.5852018 0.0093903924    7.4841367    19.012815    36.346967 
 2781000   0.99976598    23.972921    4.5964791    1.4996452    6.0961244    4.5877349 0.0087442714    23.937397    14.506139    52.734592 
 2784000    1.0009931    23.868087    4.5983177    1.5014859    6.0998035    4.5888022 0.0095154993    28.128827    20.942997    67.313854 
 2787000    1.0014562    23.962104    4.5962088    1.5021806    6.0983893     4.587323  0.008885803    9.6664882    25.192431    47.817424 
 2790000     1.001233    23.955479    4.5973547    1.5018458    6.0992005     4.588448 0.0089067749    15.641773    6.2148161    12.931348 
 2793000    1.0020037    23.888328    4.5970133    1.5030018    6.1000151    4.5885773 0.0084360371     28.33016    6.7003638    29.670487 
 2796000    1.0008327    23.930558    4.5960546    1.5012452    6.0972998     4.587067  0.008987613    4.9030316     32.10962    37.320404 
 2799000   0.99757955    23.829785    4.5975805    1.4963656    6.0939461     4.588038 0.0095424801     9.642913    5.1462586     20.28692 
 2802000    1.0031771    23.885121    4.5962706    1.5047619    6.1010325    4.5870328 0.0092378687     17.67181    25.759977    59.577181 
 2805000   0.99854111    23.913913    4.5987104    1.4978079    6.0965183     4.589776 0.0089343835    22.384232    12.816313    48.286046 
 2808000   0.99791109    23.914064    4.5970818    1.4968629    6.0939447    4.5883452 0.0087366369    10.871802     31.09392    27.739518 
 2811000   0.99959982    23.935681     4.596693     1.499396     6.096089    4.5873464 0.0093465984    22.507383    21.027882    59.719127 
 2814000    1.0016502    24.015408    4.5972521    1.5024716    6.0997237    4.5883551 0.0088969862    24.883552        9.559    47.246276 
 2817000      1.00166    23.890337    4.5967275    1.5024863    6.0992138    4.5877103 0.0090171856    16.714925    22.899762    54.341107 
 2820000   0.99997587    23.934071     4.596504    1.4999601    6.0964641     4.587164 0.0093399965    21.431122    20.839977    57.985019 
 2823000    1.0003812    23.924581    4.5965902    1.5005681    6.0971582    4.5869782 0.0096120002    9.2798276     25.44556    47.634254 
 2826000   0.99945526    24.031791    4.5986803    1.4991791    6.0978595    4.5895491 0.0091312574    13.008849    18.451346    43.155254 
 2829000   0.99900585    23.939475    4.5973639     1.498505    6.0958689     4.587396 0.0099679371    16.014477    5.7145723    29.806637 
 2832000    1.0000219    23.977805    4.5988774    1.5000291    6.0989065    4.5897348 0.0091426827     37.15906    4.2658123    45.121031 
 2835000    1.0013978    23.927418     4.598178    1.5020929    6.1002709    4.5886922 0.0094857478    23.545461    10.778897    47.084145 
 2838000    1.0017604     23.96635    4.5979604    1.5026369    6.1005972    4.5889243 0.0090360322    21.840338    26.568824    66.404854 
 2841000    1.0015878    23.979912    4.5951557    1.5023779    6.0975337    4.5861815 0.0089742145    2.7399355    9.0962939    16.236246 
 2844000    1.0025102    23.949056    4.5952061    1.5037616    6.0989676    4.5859956 0.0092104754   0.92669411    8.8898873    13.465811 
 2847000    1.0007169    23.919875    4.5952173    1.5010716    6.0962889    4.5855028 0.0097145022    29.456728    6.1168627    32.016261 
 2850000    1.0010603    23.913806     4.595247    1.5015867    6.0968337    4.5859445 0.0093025293    15.396436     15.16534    41.922855 
 2853000    1.0032759    23.963123    4.5949451    1.5049101    6.0998551    4.5853963 0.0095488128    31.394899    18.180987    68.005296 
 2856000    1.0005181    23.924216    4.5975321    1.5007734    6.0983055    4.5888507 0.0086813726     33.29638    7.3855155    55.805042 
 2859000   0.99850611    23.953724    4.5958092    1.4977554    6.0935647    4.5869733 0.0088359697     8.051696    18.963419    37.057752 
 2862000    1.0016116    23.921268    4.5969231    1.5024136    6.0993367     4.587666 0.0092571208    20.820252    6.5885527    19.522212 
 2865000   0.99881177    23.940608    4.5975657    1.4982139    6.0957796    4.5883621 0.0092036013   0.25168054    16.373226    22.114592 
 2868000   0.99961968    23.960708    4.5944467    1.4994258    6.0938725    4.5853811 0.0090656095    18.921659    20.055869    53.467089 
 2871000    1.0016309    23.892468     4.600554    1.5024426    6.1029966    4.5912569  0.009297072    12.716855    22.104468    47.765852 
 2874000    1.0011623    23.919891    4.5987789    1.5017397    6.1005186    4.5899661 0.0088127069    8.2015469    16.735629    34.207358 
 2877000    1.0008196    23.914076    4.5963531    1.5012256    6.0975787    4.5873616 0.0089914834    15.717002    7.2208056    31.464741 
 2880000   0.99942231    23.972197    4.5981243    1.4991297     6.097254    4.5887171 0.0094072555    13.979239    13.491605    37.682894 
 2883000    1.0007826    23.846214    4.5960095    1.5011701    6.0971797    4.5869925  0.009017011    28.878642    24.741287    73.552679 
 2886000    1.0016715    23.992057    4.5960075    1.5025036     6.098511    4.5873031 0.0087043447    4.5377697    20.239677    21.538957 
 2889000     1.001945     23.93234    4.5978304    1.5029137    6.1007441    4.5886348 0.0091955223    10.773861    23.594599    47.144641 
 2892000    1.0023877    23.981237    4.5953925    1.5035778    6.0989703    4.5861444 0.0092480475    14.609964    24.190666    53.224432 
 2895000    0.9981942    24.020202    4.5990079    1.4972876    6.0962955    4.5896618 0.0093460972     21.97233    19.541155    56.945767 
 2898000   0.99868963    23.925162    4.5951279    1.4980307    6.0931586    4.5862934 0.0088344808    3.4049242    23.096351    36.352898 
 2901000    1.0005494    23.911772    4.5945096    1.5008204      6.09533     4.585884 0.0086256107    16.192133    16.845602     45.31923 
 2904000    1.0004699    23.932307    4.5964431     1.500701    6.0971441    4.5866585 0.0097845722    10.298898    6.0161051    22.379966 
 2907000    1.0004868    23.959021    4.5978379    1.5007264    6.0985643    4.5885646 0.0092732103    22.030606    4.9509026    23.428937 
 2910000     1.001345    23.955669    4.5965288    1.5020138    6.0985426    4.5868929 0.0096359212    27.519467     3.063953    33.546642 
 2913000   0.99890596    23.966652     4.596873    1.4983552    6.0952282    4.5875624 0.0093105721    13.843055    13.675433    37.748249 
 2916000    1.0014563    23.933872    4.5943064    1.5021806     6.096487    4.5851114 0.0091949459     22.66614    9.7972009    44.531309 
 2919000    1.0018021    23.944396    4.5994422    1.5026994    6.1021416     4.589909 0.0095332639    8.7232077    9.3250978    24.757608 
 2922000    1.0014283    23.987485    4.5984404    1.5021387    6.1005791    4.5888501 0.0095903336    20.911396    15.690676    50.208579 
 2925000    1.0008391    23.971992    4.5984581     1.501255    6.0997131    4.5892301 0.0092280501    14.062412    5.6136642    11.589497 
 2928000    1.0015958    23.998072    4.5961196      1.50239    6.0985096    4.5870336 0.0090860125    18.214234       18.095     49.80688 
 2931000    1.0016935     24.00756    4.5992096    1.5025366    6.1017462    4.5893108 0.0098988033    46.831801    15.904339    86.057763 
 2934000    1.0005239    23.972601    4.5957339    1.5007821    6.0965161    4.5867432 0.0089907575     23.35603    17.890705    56.579857 
 2937000   0.99943701    23.980091    4.5968477    1.4991518    6.0959994    4.5874018 0.0094458594    16.194079    2.2748704    19.093556 
 2940000     1.001628    23.956677    4.5965939    1.5024382    6.0990321    4.5870061  0.009587799    12.449384     23.22724    48.939104 
 2943000    1.0016751    23.945291    4.5973987    1.5025089    6.0999075    4.5880958 0.0093028321    20.294043    13.645419    46.556167 
 2946000      1.00006    23.979956    4.5975015    1.5000863    6.0975878    4.5880744 0.0094270908    33.077214   0.86490642    46.559814 
 2949000    0.9987839    23.970748    4.5980164    1.4981721    6.0961885     4.588822 0.0091943832    17.438902    25.932583    59.494463 
 2952000    1.0019763    23.967753     4.597923    1.5029607    6.1008837    4.5884726 0.0094503918   0.43111805    34.919572    48.492006 
 2955000    1.0007913      23.9144    4.5966602    1.5011832    6.0978434     4.587532 0.0091282577    6.5280914    18.979925    34.990403 
 2958000    1.0011135    23.878956    4.5988002    1.5016665    6.1004667    4.5902243 0.0085759294    34.001621    9.8804482    60.194852 
 2961000    1.0011264    23.925952    4.5952495    1.5016858    6.0969353    4.5859381 0.0093113966    29.900046    7.4430511    30.805191 
 2964000   0.99954703    23.966539    4.5979061    1.4993168    6.0972229    4.5883912 0.0095148968    5.1209668    44.076389    53.436767 
 2967000   0.99967782    23.940534     4.598052     1.499513    6.0975649    4.5884729 0.0095790969    14.699211    23.045382    51.775822 
 2970000    1.0005688    23.965453    4.5980642    1.5008494    6.0989136    4.5890163 0.0090479254    6.6123906    15.085912    29.764461 
 2973000    1.0005505    23.997054    4.5969638     1.500822    6.0977858    4.5873915 0.0095723307    15.551038    5.6124566    29.030842 
 2976000   0.99940289    24.012452     4.598137    1.4991006    6.0972376    4.5890745  0.009062512    25.820851    3.3951525    40.076802 
 2979000    1.0009339    23.873742    4.5970735    1.5013972    6.0984707    4.5883473 0.0087262164    29.283993    11.056188    55.336298 
 2982000   0.99997082    23.983428    4.5988268    1.4999525    6.0987793    4.5892997 0.0095271254    1.9996361    20.645614     25.57746 
 2985000    1.0012152    23.979842    4.5949825     1.501819    6.0968015    4.5858691 0.0091134212    18.042753     8.343045    36.194493 
 2988000   0.99858354    24.004787    4.5955011    1.4978716    6.0933727    4.5861694  0.009331691    26.833837    27.752342    74.878123 
 2991000    1.0012536    23.967098    4.5941902    1.5018767    6.0960669    4.5855346 0.0086555667    16.927359    17.016447    46.562125 
 2994000   0.99814012    23.974251     4.597786    1.4972064    6.0949924    4.5883866 0.0093994202    5.3950688     24.26569    40.686891 
 2997000   0.99845656    23.966172    4.5950848    1.4976811    6.0927659    4.5855694 0.0095154067    22.288048    25.501689    65.555162 
 3000000   0.99999688    23.932014    4.5976704    1.4999916     6.097662    4.5882189 0.0094515708     24.95682    21.716971    64.024374 
Loop time of 141438 on 24 procs for 3000000 steps with 400312 atoms

Performance: 3665.222 tau/day, 21.211 timesteps/s
98.4% CPU use with 24 MPI tasks x no OpenMP threads

MPI task timing breakdown:
Section |  min time  |  avg time  |  max time  |%varavg| %total
---------------------------------------------------------------
Pair    | 90347      | 94454      | 98505      |1075.4 | 66.78
Bond    | 2975.1     | 3545.4     | 3931.4     | 451.3 |  2.51
Neigh   | 3547.9     | 3551.3     | 3553.6     |   2.8 |  2.51
Comm    | 6254.9     | 10555      | 15254      |3445.6 |  7.46
Output  | 0.18185    | 0.1835     | 0.21304    |   1.4 |  0.00
Modify  | 27191      | 27348      | 27536      |  66.2 | 19.34
Other   |            | 1984       |            |       |  1.40

Nlocal:    16679.7 ave 16845 max 16511 min
Histogram: 4 4 3 1 0 0 1 2 5 4
Nghost:    23802.6 ave 24019 max 23605 min
Histogram: 3 0 7 1 1 0 5 5 0 2
Neighs:    2.82341e+06 ave 2.89687e+06 max 2.74513e+06 min
Histogram: 6 5 1 0 0 0 0 0 5 7

Total # of neighbors = 67761771
Ave neighs/atom = 169.272
Ave special neighs/atom = 0.00701453
Neighbor list builds = 30320
Dangerous builds = 0

clear
next T
next concentracao
next index_simu
jump input_lammps.inp
Total wall time: 51:54:21
