

units				lj
dimension			3
atom_style			full

# change neighbor list parameters to avoid dangerous builds
neighbor			2.0 bin
neigh_modify			delay 3
comm_modify 			vel yes

read_data			data_lmp.out
  orthogonal box = (-23.0464 -23.0464 -31.6138) to (23.0464 23.0464 31.6138)
  2 by 3 by 4 MPI processor grid
  reading atoms ...
  403744 atoms
  scanning bonds ...
  2 = max bonds/atom
  scanning angles ...
  3 = max angles/atom
  scanning impropers ...
  1 = max impropers/atom
  reading bonds ...
  4176 bonds
  reading angles ...
  5904 angles
  reading impropers ...
  1296 impropers
  3 = max # of 1-2 neighbors
  6 = max # of 1-3 neighbors
  15 = max # of 1-4 neighbors
  15 = max # of special neighbors

variable			rc equal 1.0

pair_style			dpd $T ${rc} 34387
pair_style			dpd 1.0 ${rc} 34387
pair_style			dpd 1.0 1 34387
pair_coeff	1	1	25	4.5	1
pair_coeff	1	2	165.362815626677	4.5	1
pair_coeff	1	3	116.862097154698	4.5	1
pair_coeff	1	4	146.155374914401	4.5	1
pair_coeff	1	5	7.1909203509054	4.5	1
pair_coeff	2	2	25	4.5	1
pair_coeff	2	3	35.9792833065638	4.5	1
pair_coeff	2	4	25.5695494065343	4.5	1
pair_coeff	2	5	129.458804641795	4.5	1
pair_coeff	3	3	25	4.5	1
pair_coeff	3	4	33.9335949525505	4.5	1
pair_coeff	3	5	76.0819248063004	4.5	1
pair_coeff	4	4	25	4.5	1
pair_coeff	4	5	126.398804395962	4.5	1
pair_coeff	5	5	25	4.5	1

# Parâmetros de lig, ângulo e impróprio tirados do Chen2018 e com o coarse-graining do Striolo
variable			k_lig_aro equal 1000
variable			k_lig_ali equal 100
variable			r0_aro equal 0.8*${rc}
variable			r0_aro equal 0.8*1
variable			r0_ali equal 0.9*${rc}
variable			r0_ali equal 0.9*1
bond_style 			harmonic
bond_coeff 			1 ${k_lig_aro} ${r0_aro} 	# B_asp-B_asp # spring const = 150 Kcal/mol/Ang² e equi.dist = 3 Angs
bond_coeff 			1 1000 ${r0_aro} 	
bond_coeff 			1 1000 0.8 	
bond_coeff 			2 ${k_lig_aro} ${r0_aro}   	# B_asp-Z_asp # spring const = 150 Kcal/mol/Ang² e equi.dist = 3 Angs
bond_coeff 			2 1000 ${r0_aro}   	
bond_coeff 			2 1000 0.8   	
bond_coeff 			3 ${k_lig_ali} ${r0_ali}	# B_asp-A_asp # spring const = 1.50 Kcal/mol/Ang² e equi.dist = 4.25 Angs
bond_coeff 			3 100 ${r0_ali}	
bond_coeff 			3 100 0.9	
bond_coeff			4 ${k_lig_ali} ${r0_ali}	# Z_asp-A_asp # spring const = 1.50 Kcal/mol/Ang² e equi.dist = 4.25 Angs
bond_coeff			4 100 ${r0_ali}	
bond_coeff			4 100 0.9	
bond_coeff			5 ${k_lig_ali} ${r0_ali}	# A_asp-A_asp # spring const = 1.50 Kcal/mol/Ang² e equi.dist = 4.25 Angs
bond_coeff			5 100 ${r0_ali}	
bond_coeff			5 100 0.9	

variable			k_ang equal 125
angle_style 			cosine/delta
angle_coeff 			1 ${k_ang} 120.0 		# K and theta0 , 300 Kcal/mol e 120 graus
angle_coeff 			1 125 120.0 		

variable			k_imp equal 5
improper_style 			cvff
improper_coeff	 		* ${k_imp} -1 2		# K d n, K = 12.5 Kcal/mol
improper_coeff	 		* 5 -1 2		

variable                        dt equal 0.002
mass				* 1.0
velocity			all create $T 12345 dist gaussian
velocity			all create 1.0 12345 dist gaussian
fix				1 all nve

variable                        total_timesteps equal 3000000
variable			equi_timesteps	equal round(${total_timesteps}*50/100) #10% of total time
variable			equi_timesteps	equal round(3000000*50/100) 
variable			thermo_equi	equal round(${equi_timesteps}/1000)
variable			thermo_equi	equal round(1500000/1000)
variable			thermo_prod	equal round(${total_timesteps}/1000)
variable			thermo_prod	equal round(3000000/1000)
variable                        dump equal round(${total_timesteps}/1)
variable                        dump equal round(3000000/1)

# Equilibration
timestep                        ${dt}
timestep                        0.002
thermo                          ${thermo_equi}
thermo                          1500
thermo_style                    custom step temp press pe ke etotal epair emol
run                             ${equi_timesteps}
run                             1500000
Neighbor list info ...
  update every 1 steps, delay 3 steps, check yes
  max neighbors/atom: 2000, page size: 100000
  master list distance cutoff = 3
  ghost atom cutoff = 3
  binsize = 1.5, bins = 31 31 43
  1 neighbor lists, perpetual/occasional/extra = 1 0 0
  (1) pair dpd, perpetual
      attributes: half, newton on
      pair build: half/bin/newton
      stencil: half/bin/3d/newton
      bin: standard
Per MPI rank memory allocation (min/avg/max) = 36.2 | 37.01 | 37.91 Mbytes
Step Temp Press PotEng KinEng TotEng E_pair E_mol 
       0            1    90.753476    19.322388    1.4999963    20.822385    17.561265    1.7611237 
    1500    1.2092127    30.298296    5.6012205    1.8138145     7.415035    5.4986376    0.1025829 
    3000    1.0620939      28.2136    5.2982204    1.5931368    6.8913572    5.1950241   0.10319627 
    4500    1.0437387    27.374478    5.1767405    1.5656042    6.7423446    5.0740487   0.10269179 
    6000    1.0360839    26.851103     5.103979     1.554122     6.658101    4.9992178   0.10476118 
    7500    1.0257301    26.404322    5.0575761    1.5385914    6.5961675    4.9512252   0.10635089 
    9000    1.0292363    26.240038    5.0154394    1.5438507    6.5592901    4.9086862   0.10675319 
   10500    1.0231878    25.966046    4.9865035    1.5347779    6.5212814    4.8801994   0.10630403 
   12000    1.0250982    25.842249     4.958124    1.5376435    6.4957675     4.850625   0.10749902 
   13500    1.0201524    25.691192    4.9380242    1.5302248     6.468249    4.8329153    0.1051089 
   15000    1.0197683     25.53457    4.9192725    1.5296486    6.4489211    4.8117611   0.10751147 
   16500    1.0206166    25.498184    4.9103274    1.5309211    6.4412484    4.8006792   0.10964813 
   18000    1.0177129    25.431259    4.8953218    1.5265655    6.4218873    4.7853789   0.10994288 
   19500    1.0166467    25.375444    4.8857552    1.5249662    6.4107215    4.7752577   0.11049758 
   21000    1.0181631    25.172807    4.8771843    1.5272409    6.4044252    4.7673991   0.10978519 
   22500     1.016884    25.223615    4.8627899    1.5253222    6.3881121    4.7551212   0.10766871 
   24000    1.0174749     25.18973    4.8573862    1.5262085    6.3835947     4.748146   0.10924024 
   25500    1.0173014    25.072809    4.8493677    1.5259483    6.3753161    4.7406693    0.1086985 
   27000    1.0151552     24.98324    4.8456798     1.522729    6.3684087     4.736603   0.10907682 
   28500    1.0160699    24.899107    4.8369545    1.5241011    6.3610556    4.7259286   0.11102587 
   30000    1.0144971    24.964662    4.8327153    1.5217419    6.3544571    4.7235936   0.10912164 
   31500    1.0162098    24.912719    4.8263488    1.5243109    6.3506597    4.7165844   0.10976442 
   33000    1.0136533     24.80763    4.8238712    1.5204762    6.3443474    4.7130383   0.11083293 
   34500    1.0141943    24.898035    4.8200547    1.5212876    6.3413423    4.7094975   0.11055719 
   36000      1.01149    24.766808    4.8185106    1.5172312    6.3357418    4.7077901   0.11072048 
   37500    1.0134025    24.795285    4.8149063       1.5201    6.3350063     4.705366   0.10954033 
   39000    1.0125046    24.764172     4.807927    1.5187531    6.3266801    4.6994662    0.1084608 
   40500    1.0098372    24.814888     4.808168     1.514752      6.32292    4.6971348   0.11103316 
   42000    1.0117623    24.674776    4.8055306    1.5176397    6.3231703    4.6946311   0.11089953 
   43500    1.0116516    24.762114    4.8000877    1.5174737    6.3175613    4.6901991   0.10988861 
   45000    1.0113934     24.69555    4.7962319    1.5170863    6.3133181    4.6870992    0.1091327 
   46500      1.01166    24.732218    4.7954496    1.5174863     6.312936    4.6856298   0.10981983 
   48000    1.0128315     24.64664    4.7942453    1.5192435    6.3134888    4.6834399    0.1108054 
   49500     1.011066    24.684776    4.7890638    1.5165952     6.305659    4.6789101   0.11015375 
   51000    1.0129867    24.648345    4.7855739    1.5194763    6.3050502    4.6762547   0.10931926 
   52500    1.0129843    24.545602    4.7827007    1.5194726    6.3021733    4.6712283   0.11147242 
   54000        1.013    24.520984    4.7777027    1.5194962    6.2971989    4.6696734   0.10802937 
   55500    1.0136967    24.621989    4.7781582    1.5205413    6.2986995    4.6676917   0.11046648 
   57000    1.0104464     24.57621    4.7783832    1.5156658    6.2940491    4.6662566   0.11212664 
   58500    1.0114291    24.504829     4.772176    1.5171399    6.2893158    4.6635743   0.10860167 
   60000    1.0104463    24.499821    4.7728933    1.5156657     6.288559    4.6623168   0.11057647 
   61500    1.0104598    24.466682    4.7726777     1.515686    6.2883637    4.6591735   0.11350418 
   63000    1.0111317    24.449711    4.7654261    1.5166937    6.2821198    4.6550325   0.11039358 
   64500    1.0141577    24.521148    4.7655739    1.5212328    6.2868066    4.6549762   0.11059768 
   66000    1.0111905    24.498432    4.7628009    1.5167819    6.2795829    4.6521934   0.11060753 
   67500    1.0098983    24.450346    4.7617933    1.5148436     6.276637    4.6514757   0.11031763 
   69000    1.0088859    24.426233    4.7587875    1.5133252    6.2721127    4.6486515   0.11013608 
   70500    1.0101065    24.418382    4.7548421    1.5151561    6.2699981    4.6464348    0.1084073 
   72000    1.0112148    24.413603    4.7539436    1.5168185    6.2707621     4.644508   0.10943559 
   73500    1.0091564      24.4374    4.7541941    1.5137308    6.2679249    4.6431518   0.11104229 
   75000    1.0126919    24.347405    4.7536991    1.5190341    6.2727331     4.642845   0.11085407 
   76500    1.0112606    24.450702    4.7496253    1.5168872    6.2665125    4.6403534   0.10927191 
   78000    1.0106473    24.365862    4.7500266    1.5159672    6.2659938    4.6401331   0.10989346 
   79500    1.0106959    24.368034    4.7497987    1.5160401    6.2658389    4.6389206   0.11087813 
   81000    1.0086689    24.427941    4.7480881    1.5129995    6.2610877    4.6366899   0.11139824 
   82500    1.0093287    24.342439    4.7440654    1.5139893    6.2580547    4.6347103   0.10935512 
   84000    1.0082588    24.362872    4.7438945    1.5123845     6.256279    4.6338408   0.11005367 
   85500    1.0084326    24.349327    4.7454846    1.5126451    6.2581297    4.6348324   0.11065218 
   87000     1.008944    24.308757    4.7476592    1.5134123    6.2610715     4.635382   0.11227727 
   88500    1.0069117     24.32571    4.7441503    1.5103638    6.2545141    4.6350319   0.10911844 
   90000    1.0082987    24.369677    4.7427534    1.5124443    6.2551977    4.6328393   0.10991409 
   91500    1.0079055    24.297599     4.746301    1.5118546    6.2581555    4.6343892   0.11191174 
   93000    1.0066755    24.266466    4.7440856    1.5100095    6.2540951      4.63451   0.10957558 
   94500     1.005841    24.342568    4.7400331    1.5087577    6.2487908    4.6312952   0.10873795 
   96000    1.0059619    24.338766    4.7416259    1.5089392     6.250565    4.6309523   0.11067359 
   97500    1.0072768    24.329492    4.7433825    1.5109114    6.2542939    4.6328022   0.11058032 
   99000    1.0073499    24.286138    4.7396689     1.511021      6.25069    4.6296825   0.10998642 
  100500    1.0050961     24.31885    4.7407177    1.5076404     6.248358    4.6289018   0.11181593 
  102000    1.0052239    24.181075    4.7414117    1.5078321    6.2492439    4.6306217   0.11079009 
  103500    1.0046175    24.341077    4.7359726    1.5069226    6.2428952    4.6262836   0.10968903 
  105000    1.0056817    24.279039    4.7351325    1.5085188    6.2436514    4.6272123   0.10792028 
  106500    1.0041936    24.290587    4.7384383    1.5062867     6.244725     4.627555    0.1108833 
  108000    1.0071766    24.302411    4.7332473    1.5107612    6.2440085     4.624459   0.10878828 
  109500    1.0066749    24.302904    4.7359816    1.5100086    6.2459902    4.6268276   0.10915403 
  111000     1.007033    24.265374    4.7336001    1.5105458    6.2441459      4.62471   0.10889006 
  112500    1.0045913     24.29703    4.7316593    1.5068832    6.2385426     4.622955   0.10870432 
  114000    1.0093705    24.237778    4.7306752    1.5140521    6.2447272    4.6215772     0.109098 
  115500    1.0058074    24.233672    4.7332002    1.5087074    6.2419076    4.6224678   0.11073239 
  117000    1.0058487    24.244307    4.7320776    1.5087693    6.2408469     4.622906   0.10917159 
  118500    1.0035544    24.169606    4.7295309    1.5053279    6.2348588    4.6200184   0.10951249 
  120000    1.0065788    24.192101    4.7277641    1.5098644    6.2376285    4.6180929   0.10967121 
  121500     1.006032    24.193576    4.7291264    1.5090442    6.2381706    4.6187009   0.11042546 
  123000     1.004779    24.280559    4.7288102    1.5071647    6.2359749    4.6163267   0.11248354 
  124500    1.0073081    24.222195    4.7301956    1.5109584     6.241154    4.6192713   0.11092427 
  126000    1.0050575    24.256553    4.7277754    1.5075825    6.2353579    4.6159297   0.11184564 
  127500    1.0050554    24.195063    4.7270537    1.5075794     6.234633    4.6173956   0.10965804 
  129000    1.0041337     24.23796    4.7264276    1.5061968    6.2326244    4.6179801   0.10844752 
  130500    1.0051717    24.220841    4.7247069    1.5077537    6.2324606    4.6160554   0.10865145 
  132000     1.003454    24.149244    4.7254935    1.5051772    6.2306707    4.6166368   0.10885668 
  133500    1.0012206    24.251377    4.7263964    1.5018272    6.2282237    4.6169749   0.10942159 
  135000    1.0025105    24.223825    4.7258378    1.5037621    6.2295999    4.6154796   0.11035821 
  136500    1.0044425    24.219077    4.7271199      1.50666    6.2337798    4.6157339   0.11138598 
  138000    1.0039588    24.226475    4.7244591    1.5059345    6.2303936    4.6150003   0.10945881 
  139500    1.0030588    24.154655    4.7261176    1.5045845    6.2307021    4.6173833   0.10873437 
  141000     1.000706    24.277252    4.7251352    1.5010552    6.2261904    4.6152553   0.10987986 
  142500    1.0031555    24.168666    4.7267472    1.5047295    6.2314767    4.6159173   0.11082984 
  144000    1.0037882    24.190761    4.7267589    1.5056785    6.2324374    4.6168532   0.10990568 
  145500     1.003733    24.178781    4.7298496    1.5055957    6.2354454    4.6175009   0.11234873 
  147000    1.0026398    24.179384    4.7283959    1.5039559    6.2323519    4.6165815   0.11181445 
  148500    1.0037732    24.178179    4.7246522    1.5056561    6.2303083    4.6158492   0.10880298 
  150000    1.0011828    24.156591    4.7276226    1.5017704     6.229393    4.6171826   0.11044003 
  151500       1.0013    24.102228    4.7239105    1.5019462    6.2258567    4.6155006   0.10840988 
  153000    1.0027285    24.191547    4.7236861     1.504089    6.2277751    4.6154084   0.10827772 
  154500    1.0006213    24.160449     4.726107    1.5009282    6.2270352    4.6175175   0.10858954 
  156000    1.0018284    24.228302    4.7285892    1.5027388     6.231328    4.6165855   0.11200368 
  157500    1.0030962    24.133456    4.7223675    1.5046406     6.227008    4.6132008   0.10916663 
  159000    1.0020819    24.206367    4.7219812    1.5031191    6.2251002    4.6129504   0.10903075 
  160500    1.0020269    24.211902    4.7267526    1.5030367    6.2297893    4.6148559    0.1118967 
  162000    1.0026493    24.162867    4.7258095    1.5039703    6.2297798    4.6147946    0.1110149 
  163500    1.0018689    24.124844    4.7229016    1.5027996    6.2257013    4.6136829   0.10921877 
  165000    1.0027122    24.209669    4.7265152    1.5040645    6.2305797    4.6143611   0.11215405 
  166500    1.0009011    24.187877    4.7225169    1.5013479    6.2238648    4.6138295   0.10868735 
  168000    1.0052764    24.128964    4.7237578    1.5079108    6.2316687    4.6135589   0.11019897 
  169500    1.0011197    24.111567    4.7240372    1.5016758     6.225713    4.6147557   0.10928148 
  171000    1.0007793    24.196201    4.7212783    1.5011653    6.2224436    4.6113035   0.10997487 
  172500    1.0028535    24.111829    4.7199613    1.5042765    6.2242377     4.610574   0.10938723 
  174000    1.0014277    24.227383    4.7241991    1.5021378    6.2263369     4.613352   0.11084707 
  175500     1.004026    24.159801    4.7223199    1.5060352    6.2283551    4.6122015   0.11011838 
  177000    1.0021373     24.15978    4.7191202    1.5032022    6.2223224     4.611563   0.10755718 
  178500    1.0028366    24.162369    4.7218495    1.5042512    6.2261007     4.613264   0.10858549 
  180000    1.0010864     24.12044    4.7212218     1.501626    6.2228477    4.6105223   0.11069953 
  181500    1.0005044    24.188773    4.7219131    1.5007529    6.2226659    4.6105045   0.11140859 
  183000    1.0030901    24.089411    4.7219281    1.5046314    6.2265595    4.6117977   0.11013045 
  184500    1.0044468    24.066366    4.7235773    1.5066665    6.2302438    4.6127546   0.11082273 
  186000    1.0019129    24.228614    4.7200673    1.5028656    6.2229329    4.6109594   0.10910792 
  187500    1.0013524    24.207375    4.7225523    1.5020249    6.2245771    4.6116589   0.11089337 
  189000    1.0030429    24.183528    4.7198924    1.5045607     6.224453    4.6117145   0.10817785 
  190500    1.0027818    24.046766     4.720182     1.504169     6.224351    4.6107111   0.10947089 
  192000    1.0013514    24.185418     4.719945    1.5020233    6.2219684    4.6106111   0.10933394 
  193500    1.0019511    24.117583    4.7185218     1.502923    6.2214448    4.6098366   0.10868525 
  195000     1.001876     24.06747     4.722884    1.5028103    6.2256943    4.6104619   0.11242211 
  196500    1.0005508    24.208327    4.7191218    1.5008225    6.2199444    4.6098518   0.10926997 
  198000     1.001931    24.193237     4.718596    1.5028928    6.2214887    4.6093327   0.10926329 
  199500    1.0010542     24.14047    4.7228231    1.5015775    6.2244007    4.6096231   0.11320002 
  201000    1.0030782    24.184693    4.7237107    1.5046135    6.2283242    4.6118109   0.11189979 
  202500    1.0030333    24.184884    4.7192552    1.5045462    6.2238014    4.6092757   0.10997943 
  204000    1.0038472    24.125772    4.7213322    1.5057671    6.2270993    4.6109645   0.11036769 
  205500    1.0009716    24.101305    4.7206729    1.5014536    6.2221265    4.6101462   0.11052668 
  207000    1.0001288    24.180914    4.7205767    1.5001894    6.2207661    4.6107898   0.10978684 
  208500    1.0033433    24.120602     4.721823    1.5050112    6.2268343    4.6106069   0.11121611 
  210000    1.0033963    24.137942    4.7228994    1.5050907    6.2279901    4.6109986    0.1119008 
  211500    1.0009808    24.220732    4.7231624    1.5014675      6.22463    4.6129241   0.11023828 
  213000    1.0024972     24.17486    4.7201475     1.503742    6.2238896    4.6112718   0.10887577 
  214500    1.0017567    24.142452    4.7227822    1.5026313    6.2254135    4.6118665    0.1109157 
  216000      1.00182    24.149592    4.7209843    1.5027263    6.2237106    4.6112105   0.10977373 
  217500    1.0006026      24.1817    4.7216889    1.5009002    6.2225892    4.6105407    0.1111482 
  219000    1.0028039    24.213212    4.7187546    1.5042021    6.2229566    4.6096537   0.10910086 
  220500    1.0018966      24.1541    4.7240961    1.5028412    6.2269373    4.6128689    0.1112272 
  222000   0.99950239    24.159499    4.7223923    1.4992499    6.2216422    4.6118869   0.11050536 
  223500    1.0013931    24.138213    4.7197186    1.5020859    6.2218045    4.6107666   0.10895196 
  225000    1.0016489    24.188642    4.7215241    1.5024696    6.2239937    4.6094577   0.11206638 
  226500    1.0014401    24.178804    4.7209169    1.5021564    6.2230734    4.6106131   0.11030385 
  228000    1.0001465     24.12672    4.7200719     1.500216     6.220288    4.6120668    0.1080051 
  229500    1.0020266    24.166662    4.7194809    1.5030363    6.2225172    4.6095956   0.10988533 
  231000    1.0002229    24.158228    4.7213106    1.5003307    6.2216413     4.611159   0.11015162 
  232500    0.9989785    24.112823    4.7206494     1.498464    6.2191135    4.6111101   0.10953932 
  234000    1.0018777    24.130939    4.7181985    1.5028128    6.2210113    4.6093767   0.10882179 
  235500    1.0005648    24.085083    4.7245607    1.5008435    6.2254042    4.6139438   0.11061684 
  237000    1.0009333    24.160847    4.7196346    1.5013962    6.2210309    4.6108391    0.1087955 
  238500    1.0008149    24.142945    4.7211497    1.5012186    6.2223683    4.6114055   0.10974429 
  240000   0.99957489    24.140596    4.7197513    1.4993586    6.2191099      4.60985   0.10990132 
  241500    1.0020797    24.176782    4.7177724    1.5031158    6.2208881    4.6104176   0.10735474 
  243000    1.0015005    24.185617    4.7218714     1.502247    6.2241185    4.6117286    0.1101428 
  244500    1.0025714    24.119965    4.7209195    1.5038534    6.2247729    4.6112533   0.10966623 
  246000    1.0017886    24.061996    4.7224222    1.5026792    6.2251014    4.6118417   0.11058042 
  247500   0.99953812    24.116734    4.7201408    1.4993035    6.2194443    4.6105019    0.1096389 
  249000    1.0038641    24.176361     4.718413    1.5057925    6.2242054    4.6090512    0.1093618 
  250500    1.0030867    24.110108    4.7221151    1.5046264    6.2267415    4.6109686   0.11114651 
  252000   0.99840795    24.040384    4.7221124    1.4976082    6.2197206    4.6119213   0.11019104 
  253500    1.0044367     24.06219    4.7223489    1.5066513    6.2290001    4.6104823   0.11186653 
  255000    1.0008003    24.124489     4.723535    1.5011967    6.2247318    4.6115314    0.1120036 
  256500    1.0011932    24.139561    4.7198615    1.5017861    6.2216477    4.6100189   0.10984263 
  258000    1.0003154    24.217131     4.719076    1.5004694    6.2195454    4.6093541   0.10972187 
  259500    1.0006892    24.147912    4.7214726      1.50103    6.2225026    4.6107568   0.11071573 
  261000    1.0027794    24.195559    4.7219421    1.5041654    6.2261075     4.611384   0.11055811 
  262500    1.0008979    24.164413    4.7225856    1.5013432    6.2239288    4.6100823   0.11250333 
  264000    1.0012739    24.089191    4.7197198    1.5019071    6.2216269    4.6077248   0.11199509 
  265500    1.0017507    24.065608    4.7192494    1.5026224    6.2218718    4.6100699   0.10917951 
  267000    1.0005521    24.124548    4.7179591    1.5008244    6.2187835    4.6088743   0.10908481 
  268500   0.99983544    24.240879    4.7180196    1.4997494     6.217769    4.6088494    0.1091702 
  270000    1.0008966    24.178877     4.720822    1.5013412    6.2221631    4.6099922   0.11082982 
  271500    1.0005677       24.149    4.7227248    1.5008479    6.2235727    4.6099897   0.11273514 
  273000    1.0007493    24.182239    4.7192216    1.5011202    6.2203418    4.6098858   0.10933582 
  274500     1.000568    24.098676    4.7198543    1.5008483    6.2207026    4.6109742   0.10888012 
  276000    1.0013981    24.141056    4.7198618    1.5020934    6.2219552    4.6091692   0.11069266 
  277500    1.0014024    24.135353    4.7191505    1.5020998    6.2212503    4.6089532   0.11019731 
  279000    1.0004165    24.209355    4.7178335    1.5006211    6.2184546    4.6068891   0.11094444 
  280500    1.0018338    24.138148    4.7179921    1.5027469     6.220739    4.6086408   0.10935129 
  282000    1.0019499    24.142797    4.7204657    1.5029211    6.2233867    4.6105474   0.10991826 
  283500   0.99950394    24.193186    4.7171182    1.4992522    6.2163704    4.6090545   0.10806373 
  285000    1.0009655    24.094217    4.7224099    1.5014446    6.2238545    4.6115102   0.11089966 
  286500    1.0022744     24.23159    4.7204382    1.5034079    6.2238461    4.6096403   0.11079792 
  288000     1.002353    24.130341    4.7189461    1.5035257    6.2224718    4.6096452   0.10930084 
  289500     1.000025    24.142894    4.7193138    1.5000338    6.2193476    4.6103819   0.10893186 
  291000    1.0006775    24.137581     4.718876    1.5010125    6.2198884    4.6088981   0.10997784 
  292500    1.0008619    24.071279    4.7173258    1.5012891    6.2186149    4.6098258   0.10750001 
  294000    1.0020444    24.121828    4.7212648    1.5030628    6.2243277      4.60991    0.1113548 
  295500    1.0003136    24.174582    4.7175785    1.5004666    6.2180451    4.6087575   0.10882104 
  297000    1.0006168    24.147877    4.7198571    1.5009214    6.2207785    4.6099062   0.10995086 
  298500   0.99931218    24.111842    4.7211127    1.4989646    6.2200772    4.6101417   0.11097096 
  300000    1.0009402    24.131109    4.7209566    1.5014066    6.2223631    4.6116211   0.10933545 
  301500   0.99953393     24.17393    4.7166059    1.4992972    6.2159031    4.6085554   0.10805046 
  303000    1.0027404    24.127176    4.7173821    1.5041068    6.2214889    4.6081777   0.10920439 
  304500    1.0008803    24.120309    4.7231145    1.5013167    6.2244313    4.6120368   0.11107773 
  306000    1.0018248    24.119143    4.7220258    1.5027336    6.2247594    4.6100969   0.11192889 
  307500    1.0007663    24.148735    4.7222629    1.5011457    6.2234086        4.612   0.11026288 
  309000    1.0014286    24.187149    4.7187373    1.5021392    6.2208765    4.6090584   0.10967886 
  310500    1.0013641    24.135649    4.7199141    1.5020424    6.2219564    4.6103116   0.10960247 
  312000    1.0006368    24.142451    4.7201072    1.5009515    6.2210587    4.6091597   0.11094746 
  313500    1.0001444    24.097924    4.7202251    1.5002129    6.2204379    4.6100062   0.11021889 
  315000    1.0001012    24.134077    4.7189748    1.5001482     6.219123     4.608682   0.11029277 
  316500    1.0020638    24.160343    4.7191825     1.503092    6.2222745     4.608886   0.11029653 
  318000     1.002663     24.12004    4.7193883    1.5039908    6.2233791    4.6096738   0.10971453 
  319500    1.0002922    24.095627    4.7171202    1.5004345    6.2175548    4.6084594   0.10866082 
  321000    1.0009461     24.08196    4.7207335    1.5014154    6.2221489    4.6108387   0.10989482 
  322500    1.0004132    24.154367    4.7175296    1.5006162    6.2181458    4.6084719   0.10905768 
  324000    1.0009497    24.121316    4.7207335    1.5014209    6.2221544    4.6097303   0.11100325 
  325500   0.99967238    24.145548    4.7199111    1.4995049    6.2194159    4.6090757   0.11083536 
  327000    1.0024691    24.135802    4.7178698    1.5036999    6.2215697    4.6084546    0.1094152 
  328500    1.0018379    24.211012    4.7182708    1.5027531    6.2210239    4.6077827   0.11048804 
  330000    1.0020869     24.15702     4.722628    1.5031267    6.2257546    4.6108995   0.11172845 
  331500   0.99995544    24.064906    4.7187803    1.4999294    6.2187098    4.6087361   0.11004419 
  333000    1.0024853    24.123405    4.7205528    1.5037242     6.224277    4.6093529   0.11119989 
  334500    1.0003938    24.114736    4.7192655     1.500587    6.2198525    4.6079966   0.11126896 
  336000    1.0018159    24.137077      4.72093    1.5027201    6.2236502      4.60933   0.11160002 
  337500    1.0001989    24.142862    4.7201156    1.5002947    6.2204103    4.6101882    0.1099274 
  339000    1.0009765    24.162523    4.7182492     1.501461    6.2197102    4.6099386   0.10831066 
  340500    1.0023069    24.092328     4.718001    1.5034566    6.2214575    4.6076114   0.11038956 
  342000    1.0028769    24.214937    4.7192582    1.5043116    6.2235698    4.6088807   0.11037755 
  343500    0.9989967     24.13159    4.7200871    1.4984913    6.2185784     4.610176   0.10991102 
  345000   0.99988564    24.065491    4.7213535    1.4998247    6.2211783    4.6119707   0.10938282 
  346500    1.0031603    24.155762    4.7199689    1.5047367    6.2247056    4.6086068   0.11136211 
  348000    1.0008594    24.149447    4.7201037    1.5012854     6.221389    4.6088137      0.11129 
  349500    1.0009911    24.144358    4.7208365    1.5014829    6.2223194    4.6102802   0.11055629 
  351000    0.9996809    24.100143    4.7199463    1.4995176     6.219464    4.6101064   0.10983997 
  352500   0.99837017    24.064876    4.7175263    1.4975515    6.2150778    4.6072975   0.11022879 
  354000   0.99983581    24.062056    4.7217796      1.49975    6.2215296    4.6108886   0.11089102 
  355500    0.9996338    24.118865    4.7200434     1.499447    6.2194904    4.6101403   0.10990311 
  357000   0.99977872    24.096037    4.7183995    1.4996644    6.2180638    4.6096425   0.10875698 
  358500    1.0011123    24.070226    4.7182334    1.5016648    6.2198982    4.6089621   0.10927134 
  360000   0.99980122    24.133562    4.7205678    1.4996981    6.2202659    4.6099504   0.11061743 
  361500     1.000285    24.142352    4.7197039    1.5004238    6.2201277    4.6093199   0.11038398 
  363000    1.0022946    24.161967    4.7187495    1.5034381    6.2221877    4.6084599   0.11028966 
  364500    1.0004386    24.152215    4.7213546    1.5006542    6.2220088    4.6098926   0.11146208 
  366000   0.99922887    24.137565    4.7201705    1.4988396    6.2190101     4.610044   0.11012641 
  367500    1.0002151     24.10652    4.7156489    1.5003189    6.2159678    4.6083003   0.10734858 
  369000    1.0000254    24.082709    4.7184011    1.5000344    6.2184355     4.608809   0.10959208 
  370500   0.99809959    24.105339     4.718638    1.4971457    6.2157836    4.6092973   0.10934069 
  372000     1.000832    24.176307    4.7190538    1.5012443    6.2202981    4.6092537   0.10980018 
  373500    1.0007158     24.15077    4.7228072      1.50107    6.2238772    4.6109513   0.11185591 
  375000    1.0005889    24.121015     4.721463    1.5008796    6.2223427    4.6101518   0.11131125 
  376500    1.0007046    24.201538     4.719805    1.5010532    6.2208582    4.6090434   0.11076159 
  378000    1.0016941    24.168765    4.7184881    1.5025375    6.2210256    4.6098509    0.1086372 
  379500   0.99873438    24.148293    4.7214635    1.4980979    6.2195614    4.6105568   0.11090677 
  381000    1.0003509    24.101298    4.7188918    1.5005226    6.2194143    4.6090634   0.10982838 
  382500   0.99938367     24.11061       4.7191    1.4990718    6.2181718     4.608609   0.11049109 
  384000    1.0024383    24.081054    4.7202403    1.5036537     6.223894    4.6094075   0.11083276 
  385500   0.99891915    24.152688    4.7203392     1.498375    6.2187142    4.6110972   0.10924196 
  387000   0.99978481    24.214232    4.7188152    1.4996735    6.2184887    4.6087273   0.11008791 
  388500    1.0021361    24.139841    4.7228955    1.5032004    6.2260959    4.6113753   0.11152025 
  390000    1.0000138    24.082673    4.7190983     1.500017    6.2191153    4.6077046   0.11139375 
  391500    1.0008433    24.102441    4.7191338    1.5012612    6.2203951    4.6085144   0.11061945 
  393000      1.00076    24.167254    4.7183591    1.5011362    6.2194953    4.6085939   0.10976523 
  394500    1.0015625    24.071856     4.718005    1.5023401     6.220345    4.6082949    0.1097101 
  396000   0.99999732    24.095802    4.7181043    1.4999923    6.2180966    4.6088458   0.10925854 
  397500    1.0012256    24.215236    4.7189359    1.5018347    6.2207706    4.6086517   0.11028416 
  399000    1.0017765    24.099838    4.7178617    1.5026611    6.2205228    4.6093342   0.10852753 
  400500    1.0009386    24.127863    4.7206572    1.5014042    6.2220613    4.6093827   0.11127446 
  402000     1.000437    24.135364    4.7168101    1.5006517    6.2174618    4.6078081   0.10900201 
  403500   0.99912258    24.110294    4.7171285    1.4986802    6.2158087    4.6084514   0.10867715 
  405000    1.0043038    24.119161    4.7199526     1.506452    6.2264045    4.6090692   0.11088336 
  406500    1.0015551    24.102725    4.7211611     1.502329    6.2234901    4.6112317   0.10992939 
  408000    1.0003614    24.087028    4.7192163    1.5005384    6.2197548    4.6096195   0.10959683 
  409500    1.0003399    24.160388    4.7177136    1.5005062    6.2182198     4.608168   0.10954566 
  411000    1.0020116    24.120039    4.7175979    1.5030137    6.2206116    4.6076315    0.1099664 
  412500    0.9997034    24.149508    4.7167617    1.4995514    6.2163131    4.6078626   0.10889904 
  414000    0.9990572    24.124427    4.7181505    1.4985821    6.2167326    4.6073589   0.11079164 
  415500   0.99959443    24.057797    4.7185455    1.4993879    6.2179334    4.6093661   0.10917939 
  417000    1.0013316    24.201457    4.7193426    1.5019938    6.2213363    4.6088029   0.11053967 
  418500    1.0027134    24.090844    4.7184675    1.5040664    6.2225339    4.6084013   0.11006618 
  420000    1.0019998    24.101413    4.7200904    1.5029959    6.2230864    4.6089227   0.11116772 
  421500     1.002212      24.1522    4.7193807    1.5033142     6.222695    4.6090595   0.11032122 
  423000     1.001105    24.116848    4.7168102    1.5016537    6.2184639    4.6078478    0.1089624 
  424500    1.0003013    24.090388     4.719689    1.5004483    6.2201373    4.6111686   0.10852045 
  426000    1.0030835    24.098472    4.7164258    1.5046215    6.2210473    4.6072744   0.10915139 
  427500    1.0012126    24.097895     4.716018    1.5018151    6.2178331    4.6074005   0.10861754 
  429000    1.0010543    24.001181    4.7212203    1.5015777    6.2227979    4.6103595   0.11086082 
  430500    1.0001541    24.076655    4.7205659    1.5002275    6.2207934    4.6112372   0.10932868 
  432000    1.0011269    24.151289    4.7183277    1.5016867    6.2200144    4.6080644   0.11026328 
  433500    1.0007778    24.164983    4.7178686     1.501163    6.2190316    4.6077716     0.110097 
  435000   0.99983408    24.085576    4.7204596    1.4997474     6.220207      4.61112   0.10933956 
  436500    1.0017242    24.145167    4.7164529    1.5025826    6.2190355    4.6077903   0.10866258 
  438000    1.0001113    24.096876    4.7210074    1.5001632    6.2211707    4.6106058    0.1104016 
  439500   0.99992791    24.129065    4.7184694    1.4998882    6.2183576    4.6083554     0.110114 
  441000     1.001751    24.097419    4.7208992    1.5026228    6.2235221    4.6105061   0.11039317 
  442500   0.99955019    24.098386    4.7185629    1.4993216    6.2178845    4.6082847   0.11027824 
  444000   0.99982595     24.11254    4.7227698    1.4997352     6.222505     4.611037   0.11173284 
  445500      1.00161    24.138077    4.7206018    1.5024113    6.2230131    4.6107835   0.10981836 
  447000    1.0016311    24.077274    4.7208998    1.5024429    6.2233427    4.6102211   0.11067862 
  448500   0.99839193    24.145058    4.7183955    1.4975842    6.2159797    4.6101852   0.10821026 
  450000    1.0017506    24.100923     4.719713    1.5026221    6.2223351    4.6108568   0.10885626 
  451500   0.99979142    24.033301     4.720525    1.4996834    6.2202084    4.6092836   0.11124144 
  453000   0.99807289    24.110031    4.7181039    1.4971056    6.2152095    4.6096756   0.10842829 
  454500    1.0025329     24.13203    4.7165295    1.5037956    6.2203251    4.6072629   0.10926657 
  456000   0.99853922    24.140873    4.7194026    1.4978051    6.2172077     4.608364   0.11103852 
  457500   0.99958722    24.055954    4.7195685    1.4993771    6.2189456    4.6082592   0.11130923 
  459000    1.0029034    24.139356    4.7176778    1.5043513    6.2220291    4.6092194   0.10845838 
  460500   0.99966684    24.124482    4.7198048    1.4994966    6.2193013    4.6087962    0.1110086 
  462000   0.99851229     24.08692    4.7204725    1.4977647    6.2182372    4.6099921    0.1104804 
  463500    0.9996574    24.138625    4.7176234    1.4994824    6.2171058    4.6083443   0.10927915 
  465000    0.9997254    24.221002    4.7228474    1.4995844    6.2224318    4.6095085   0.11333883 
  466500   0.99987668    24.124397     4.721727    1.4998113    6.2215383    4.6080973   0.11362969 
  468000    1.0007362    24.075877    4.7183738    1.5011005    6.2194743    4.6076655   0.11070821 
  469500    1.0017963    24.063837    4.7194886    1.5026908    6.2221794     4.610576   0.10891265 
  471000   0.99830877    24.213337    4.7199074    1.4974595    6.2173669    4.6091549   0.11075252 
  472500    1.0020116    24.016629    4.7188902    1.5030136    6.2219038    4.6078778   0.11101244 
  474000    1.0006076    24.057614    4.7195301    1.5009076    6.2204378    4.6101723   0.10935781 
  475500   0.99973565    24.143842    4.7178181    1.4995998    6.2174178    4.6093412   0.10847686 
  477000    1.0006876    24.159249    4.7152416    1.5010277    6.2162692    4.6059773   0.10926432 
  478500    1.0000799    24.089776    4.7205929    1.5001162    6.2207091    4.6094241   0.11116879 
  480000    1.0034167    24.124052    4.7148262    1.5051213    6.2199475    4.6085852   0.10624098 
  481500   0.99937957    24.109559    4.7196565    1.4990656    6.2187221    4.6094106   0.11024591 
  483000   0.99977469    24.197348    4.7193308    1.4996583    6.2189891    4.6101488   0.10918196 
  484500    1.0001019      24.1194    4.7192555    1.5001492    6.2194047     4.609092    0.1101635 
  486000    1.0026774    24.177702    4.7193874    1.5040124    6.2233998     4.609029   0.11035845 
  487500    1.0014307    24.125622    4.7183241    1.5021423    6.2204664    4.6063718   0.11195224 
  489000     1.000393    24.140943    4.7176043    1.5005858      6.21819    4.6078523   0.10975198 
  490500    1.0000253      24.1099    4.7191032    1.5000342    6.2191373    4.6079211   0.11118207 
  492000    1.0003941    24.111628    4.7197662    1.5005875    6.2203537    4.6102381    0.1095281 
  493500    1.0021042    24.106199    4.7190149    1.5031525    6.2221674    4.6093517   0.10966328 
  495000    1.0027671    24.107788    4.7162935     1.504147    6.2204404    4.6067024   0.10959108 
  496500    1.0016948     24.09632    4.7176558    1.5025385    6.2201943    4.6074826   0.11017322 
  498000    1.0012616    24.071059    4.7179286    1.5018887    6.2198172    4.6074092   0.11051937 
  499500    1.0014335    24.119911    4.7216932    1.5021465    6.2238397    4.6096517   0.11204148 
  501000   0.99821558    24.113949    4.7203566    1.4973197    6.2176762    4.6089162   0.11144037 
  502500   0.99885898    24.213993    4.7198505    1.4982848    6.2181353    4.6090116   0.11083892 
  504000    1.0009306    24.106045    4.7200811    1.5013922    6.2214733    4.6090978   0.11098327 
  505500   0.99895955    24.123332    4.7185368    1.4984356    6.2169724     4.607632   0.11090474 
  507000    1.0021905    24.137126    4.7157829     1.503282    6.2190649    4.6064194    0.1093635 
  508500    0.9999263    24.121157    4.7174464    1.4998857    6.2173321    4.6068449   0.11060144 
  510000   0.99977865    24.163399    4.7205899    1.4996643    6.2202542    4.6089656   0.11162426 
  511500   0.99937507    24.101844     4.720291    1.4990589    6.2193499    4.6092883   0.11100275 
  513000    1.0010174     24.15854    4.7198231    1.5015225    6.2213456    4.6078349   0.11198819 
  514500   0.99967879    24.065648    4.7166625    1.4995145    6.2161769    4.6066334   0.11002909 
  516000   0.99893652    24.045511    4.7184681    1.4984011    6.2168692    4.6081316   0.11033658 
  517500   0.99833336    24.058674    4.7178304    1.4974963    6.2153268     4.606616   0.11121441 
  519000   0.99910441    24.152649    4.7207469    1.4986529    6.2193998    4.6101266   0.11062038 
  520500    1.0000084    24.156188    4.7198355    1.5000088    6.2198443    4.6087766    0.1110589 
  522000    1.0024325    24.114049    4.7188017     1.503645    6.2224468    4.6085988    0.1102029 
  523500   0.99844686    24.138929    4.7181482    1.4976666    6.2158148     4.609656   0.10849222 
  525000   0.99781209    24.052351    4.7194559    1.4967144    6.2161703    4.6086076   0.11084827 
  526500    1.0016582    24.094588    4.7199703    1.5024835    6.2224538    4.6092287   0.11074163 
  528000    1.0016676    24.165278    4.7202152    1.5024976    6.2227128    4.6093212   0.11089399 
  529500    1.0003439    24.161891    4.7163651    1.5005121    6.2168772    4.6057578   0.11060726 
  531000    1.0003558    24.164602     4.720358      1.50053     6.220888    4.6076111   0.11274686 
  532500    1.0033258    24.089651    4.7182721    1.5049849     6.223257    4.6088564   0.10941563 
  534000    1.0002764    24.136947    4.7172812    1.5004109    6.2176921    4.6085293   0.10875184 
  535500   0.99979916    24.191764    4.7189497     1.499695    6.2186447    4.6086426   0.11030701 
  537000    0.9996441    24.110372    4.7186173    1.4994624    6.2180798    4.6087155   0.10990184 
  538500    1.0002905    24.162989    4.7185563     1.500432    6.2189882     4.608731   0.10982528 
  540000    1.0025047    24.110664    4.7187877    1.5037534    6.2225411    4.6083887   0.11039907 
  541500     1.003075    24.155878    4.7189793    1.5046088    6.2235881    4.6094604    0.1095189 
  543000    1.0003926    24.146621     4.720703    1.5005852    6.2212882    4.6092427   0.11146026 
  544500   0.99807927    24.102692    4.7205299    1.4971152    6.2176451    4.6082638   0.11226607 
  546000    1.0024669    24.160678    4.7193275    1.5036967    6.2230242     4.608313   0.11101445 
  547500    1.0012637    24.082097    4.7172474    1.5018919    6.2191393    4.6074906    0.1097568 
  549000    1.0012398    24.148233    4.7200186    1.5018561    6.2218746    4.6093492    0.1106694 
  550500    1.0022032    24.124402    4.7218647    1.5033011    6.2251658    4.6099609    0.1119038 
  552000   0.99940699    24.087229    4.7196564    1.4991068    6.2187631    4.6082995   0.11135685 
  553500    1.0010016    24.080337    4.7149193    1.5014987     6.216418    4.6044454   0.11047391 
  555000    1.0029088    24.129717    4.7180198    1.5043595    6.2223794    4.6077949    0.1102249 
  556500   0.99945099    24.189637    4.7199838    1.4991728    6.2191566    4.6104309   0.10955291 
  558000    1.0006429    24.057047     4.717466    1.5009607    6.2184267    4.6075079   0.10995814 
  559500    1.0019447    24.134018    4.7227071    1.5029133    6.2256204    4.6099377   0.11276945 
  561000    1.0034921    24.133301    4.7186712    1.5052344    6.2239055    4.6083623   0.11030883 
  562500    1.0003049    24.060715    4.7197149    1.5004537    6.2201685    4.6094311   0.11028379 
  564000    1.0030994     24.14845    4.7175894    1.5046454    6.2222348    4.6070793   0.11051017 
  565500    1.0014473    24.133368    4.7215862    1.5021673    6.2237534    4.6097065    0.1118797 
  567000    1.0005009    24.210924    4.7168563    1.5007477     6.217604    4.6077099   0.10914638 
  568500    1.0033746    24.093951    4.7189442    1.5050582    6.2240023    4.6092762   0.10966797 
  570000     1.001858    24.092233    4.7190614    1.5027832    6.2218446    4.6073184   0.11174298 
  571500   0.99781673    24.059031    4.7203701    1.4967214    6.2170915    4.6098463   0.11052378 
  573000    1.0013202     24.16248    4.7216521    1.5019766    6.2236287    4.6112177    0.1104344 
  574500    1.0022287     24.18468    4.7184386    1.5033393     6.221778    4.6083117   0.11012694 
  576000    1.0009953    24.023946    4.7171513    1.5014893    6.2186405    4.6090118    0.1081395 
  577500    1.0016168    24.090043    4.7175177    1.5024214    6.2199391    4.6094816   0.10803613 
  579000    1.0009472     24.21082    4.7211648    1.5014171    6.2225819    4.6090685   0.11209627 
  580500    0.9998222    24.075749     4.719921    1.4997296    6.2196506    4.6081491   0.11177196 
  582000    1.0013817    24.079006    4.7189617    1.5020688    6.2210305    4.6088345    0.1101272 
  583500    1.0016244    24.122606    4.7167861    1.5024329     6.219219    4.6074584   0.10932779 
  585000    1.0006566    24.087931    4.7202128    1.5009812     6.221194    4.6098488   0.11036401 
  586500   0.99968614    24.082521     4.718766    1.4995255    6.2182915    4.6069179   0.11184814 
  588000    1.0018293    24.072413     4.718914    1.5027402    6.2216542    4.6077229   0.11119107 
  589500    1.0028549    24.072448    4.7201625    1.5042787    6.2244412     4.607968   0.11219449 
  591000    1.0026071    24.144352    4.7202505    1.5039069    6.2241574    4.6085366   0.11171394 
  592500   0.99976417    24.179814    4.7198888    1.4996425    6.2195313    4.6095778   0.11031105 
  594000    1.0009828    24.043224    4.7157028    1.5014705    6.2171733    4.6077083   0.10799454 
  595500    1.0016853    24.150827    4.7188582    1.5025243    6.2213825    4.6087158   0.11014242 
  597000    1.0012979    24.073655    4.7153966    1.5019431    6.2173397    4.6059601   0.10943649 
  598500    1.0012409    24.119387    4.7173664    1.5018576     6.219224     4.607189   0.11017735 
  600000   0.99860889    24.178459    4.7181386    1.4979096    6.2160483    4.6070459   0.11109269 
  601500    1.0025959     24.09225    4.7195201    1.5038901    6.2234101    4.6090202   0.11049988 
  603000    1.0024613     24.14506    4.7182681    1.5036882    6.2219562    4.6078689   0.11039914 
  604500    1.0010823    24.177963    4.7184311    1.5016197    6.2200508    4.6076151   0.11081598 
  606000    1.0023009    24.099276    4.7194655    1.5034477    6.2229132     4.609964   0.10950148 
  607500    1.0012023    24.005423    4.7205452    1.5017997    6.2223449    4.6089091   0.11163613 
  609000    1.0025817    24.128328    4.7192154    1.5038688    6.2230842    4.6093691   0.10984624 
  610500    1.0010837    24.170136    4.7202807    1.5016218    6.2219025    4.6095275   0.11075322 
  612000   0.99703114     24.08888    4.7182875     1.495543    6.2138305    4.6081604   0.11012704 
  613500    1.0011301    24.107494    4.7186951    1.5016914    6.2203864    4.6094461   0.10924894 
  615000    1.0013416    24.044964    4.7174667    1.5020087    6.2194754    4.6082013   0.10926547 
  616500   0.99814138    24.097054    4.7181186    1.4972084    6.2153269    4.6075899   0.11052864 
  618000    1.0010367    24.173517    4.7193473    1.5015513    6.2208987     4.607982   0.11136528 
  619500   0.99974357    24.122179    4.7163774    1.4996116     6.215989    4.6078764   0.10850102 
  621000   0.99958642    24.082106    4.7197626    1.4993759    6.2191386    4.6082387   0.11152395 
  622500    1.0020191    24.063565    4.7186078     1.503025    6.2216328    4.6080984   0.11050938 
  624000   0.99928171    24.178977    4.7205632    1.4989189     6.219482    4.6101027   0.11046047 
  625500    1.0036893    24.189668    4.7213751    1.5055302    6.2269053     4.609335   0.11204016 
  627000   0.99827549    24.073594    4.7189156    1.4974095    6.2163251    4.6096959   0.10921967 
  628500    1.0013446    24.102341    4.7172581    1.5020132    6.2192713    4.6061922   0.11106595 
  630000    1.0013478    24.100781    4.7200091    1.5020179     6.222027    4.6098772   0.11013191 
  631500    1.0008861    24.152432    4.7198544    1.5013254    6.2211798     4.607491   0.11236336 
  633000    1.0001328    24.099505     4.716838    1.5001955    6.2170334    4.6074501   0.10938788 
  634500    1.0026367    24.146913    4.7214563    1.5039513    6.2254075    4.6098618   0.11159441 
  636000   0.99946212    24.138444     4.717259    1.4991895    6.2164485    4.6068507    0.1104083 
  637500    1.0024296    24.168193    4.7207128    1.5036406    6.2243534    4.6089606   0.11175219 
  639000    1.0005887    24.101062    4.7181412    1.5008793    6.2190205     4.607881   0.11026024 
  640500   0.99819079     24.17718    4.7186107    1.4972825    6.2158932    4.6096747   0.10893599 
  642000    1.0017617    24.098524    4.7199229    1.5026388    6.2225617    4.6079437    0.1119792 
  643500   0.99987414    24.136719    4.7183729    1.4998075    6.2181804    4.6087901    0.1095828 
  645000   0.99953923    24.149927    4.7184651    1.4993051    6.2177702    4.6074278   0.11103728 
  646500    0.9989541    24.129282    4.7204797    1.4984274    6.2189071    4.6098014   0.11067831 
  648000   0.99825925    24.090775    4.7206619    1.4973852     6.218047     4.609533   0.11112882 
  649500    1.0025312     24.08193     4.720187    1.5037931    6.2239801    4.6090239   0.11116312 
  651000    1.0013366     24.19332     4.720334    1.5020011    6.2223351    4.6086314   0.11170261 
  652500    0.9988147    24.127506    4.7182953    1.4982183    6.2165136    4.6060828   0.11221243 
  654000   0.99893448    24.156646    4.7177461     1.498398    6.2161441    4.6081035   0.10964256 
  655500    1.0007591     24.14076    4.7186669    1.5011349    6.2198018    4.6066172   0.11204969 
  657000    1.0022513    24.123552    4.7186321    1.5033732    6.2220053    4.6097068   0.10892525 
  658500    1.0031525    24.076312    4.7213097    1.5047251    6.2260348    4.6094874   0.11182235 
  660000   0.99973297    24.128825    4.7188917    1.4995957    6.2184875    4.6085406   0.11035116 
  661500   0.99865786    24.091994    4.7182853    1.4979831    6.2162684    4.6064664   0.11181891 
  663000   0.99958335     24.12266    4.7168901    1.4993713    6.2162614     4.608138   0.10875208 
  664500    1.0017829    24.198492    4.7148138    1.5026706    6.2174843    4.6056328   0.10918095 
  666000    1.0002189    24.119809    4.7194566    1.5003246    6.2197813    4.6081259   0.11133072 
  667500   0.99955183    24.110507    4.7189341     1.499324    6.2182581    4.6082131   0.11072104 
  669000    1.0008508    24.171932     4.719505    1.5012725    6.2207775    4.6077767   0.11172822 
  670500    1.0022945    24.203913     4.721298     1.503438     6.224736    4.6078688   0.11342917 
  672000   0.99890838    24.071013    4.7184991    1.4983589    6.2168579    4.6081619   0.11033715 
  673500    1.0001267    24.203383    4.7195669    1.5001863    6.2197532     4.609371   0.11019589 
  675000    1.0025898    24.161319    4.7189844     1.503881    6.2228654    4.6076837   0.11130072 
  676500    1.0003703    24.192061    4.7160543    1.5005518     6.216606    4.6065054    0.1095489 
  678000   0.99840612    24.124895    4.7182313    1.4976055    6.2158368    4.6073751   0.11085624 
  679500    1.0023799    24.128818    4.7158469    1.5035661    6.2194131    4.6063955   0.10945139 
  681000    1.0005601    24.078779    4.7173335    1.5008364    6.2181699    4.6077298   0.10960376 
  682500    1.0017402    24.112435    4.7188795    1.5026065     6.221486    4.6075435     0.111336 
  684000    1.0017633    24.261187    4.7187825    1.5026413    6.2214238    4.6078762   0.11090625 
  685500    0.9989239    24.125395    4.7183538    1.4983821    6.2167359    4.6075327   0.11082108 
  687000    1.0008102    24.061978    4.7191514    1.5012115    6.2203629    4.6093967    0.1097547 
  688500    1.0040882    24.109768    4.7184965    1.5061286    6.2246252     4.608124    0.1103725 
  690000    1.0008966    24.157259    4.7167195    1.5013411    6.2180607    4.6064092   0.11031031 
  691500     1.001253    24.083758    4.7184272    1.5018758    6.2203031    4.6075432   0.11088401 
  693000   0.99851232    24.119947    4.7195481    1.4977648    6.2173128    4.6085278   0.11102025 
  694500    1.0017327    24.131302    4.7184827    1.5025954    6.2210781     4.606484   0.11199875 
  696000    1.0012113    24.182745    4.7193562    1.5018132    6.2211694    4.6078313   0.11152487 
  697500   0.99883513    24.067811    4.7204241     1.498249     6.218673    4.6096981   0.11072591 
  699000    1.0029264    24.144608    4.7195215    1.5043859    6.2239074    4.6083951   0.11112645 
  700500    1.0004314    24.182489    4.7179693    1.5006434    6.2186127    4.6069407   0.11102863 
  702000   0.99859586     24.16897    4.7210074    1.4978901    6.2188975    4.6110053   0.11000208 
  703500     1.001504    24.035825    4.7184922    1.5022523    6.2207445    4.6083719   0.11012031 
  705000    1.0011903    24.162741    4.7186062    1.5017818     6.220388    4.6067612   0.11184496 
  706500    1.0021431    24.117493    4.7198438     1.503211    6.2230548    4.6105005   0.10934335 
  708000    1.0026544    24.175194     4.718481    1.5039779    6.2224589    4.6083222   0.11015882 
  709500    1.0029733    24.102941    4.7167366    1.5044563    6.2211929    4.6063802   0.11035635 
  711000    1.0007861     24.09648    4.7192419    1.5011754    6.2204173    4.6073337   0.11190821 
  712500    1.0000193    24.086974    4.7161055    1.5000252    6.2161308    4.6064607   0.10964486 
  714000    1.0008625    24.168619    4.7199624    1.5012901    6.2212525    4.6086905   0.11127187 
  715500    1.0031599    24.110009    4.7202149    1.5047362    6.2249511    4.6099533   0.11026161 
  717000    1.0024651    24.154776    4.7184692    1.5036939    6.2221632    4.6084934   0.10997582 
  718500    1.0009767    24.093645     4.715172    1.5014614    6.2166334    4.6062965   0.10887549 
  720000   0.99855546    24.061556    4.7214898    1.4978295    6.2193193    4.6100987   0.11139115 
  721500    1.0000716    24.101416    4.7163253    1.5001037    6.2164291    4.6080353   0.10829002 
  723000   0.99913254    24.077123    4.7190455    1.4986951    6.2177406    4.6079964   0.11104909 
  724500    1.0032948    24.148354    4.7180057    1.5049385    6.2229442    4.6078818   0.11012388 
  726000   0.99874578    24.117401    4.7171731     1.498115     6.215288     4.606816   0.11035711 
  727500    1.0045707    24.106273    4.7147379    1.5068523    6.2215902    4.6045738   0.11016404 
  729000    1.0009126    24.117582    4.7217128    1.5013651    6.2230779    4.6088461   0.11286663 
  730500   0.99993257     24.21055    4.7208875    1.4998951    6.2207827    4.6106814   0.11020616 
  732000    1.0015967    24.093719    4.7180287    1.5023913      6.22042    4.6069266   0.11110207 
  733500    1.0023208    24.140496    4.7197146    1.5034774     6.223192    4.6084356   0.11127899 
  735000    1.0017239    24.156054    4.7204519    1.5025821     6.223034    4.6103751   0.11007681 
  736500    1.0000304    24.060564    4.7189749    1.5000419    6.2190168    4.6072749   0.11170003 
  738000    0.9996984     24.11793    4.7171218    1.4995439    6.2166656    4.6067689   0.11035289 
  739500    1.0010279    24.089129     4.717421    1.5015382    6.2189591    4.6064635   0.11095751 
  741000    1.0010087    24.034973    4.7174678    1.5015093    6.2189772    4.6074688   0.10999901 
  742500    0.9997857    24.073633    4.7150543    1.4996748    6.2147292    4.6058738   0.10918055 
  744000    1.0002544    24.126482    4.7179169    1.5003779    6.2182947    4.6084988   0.10941809 
  745500     1.001088    24.105375    4.7193019    1.5016283    6.2209302    4.6086923   0.11060964 
  747000    1.0000795    24.040957    4.7209056    1.5001155    6.2210211    4.6096664   0.11123916 
  748500    1.0009448    24.246587    4.7160112    1.5014135    6.2174247    4.6064009   0.10961027 
  750000    1.0015956    24.158969    4.7192452    1.5023897    6.2216349    4.6076909    0.1115543 
  751500   0.99921916    24.139755    4.7184512     1.498825    6.2172763    4.6078273   0.11062389 
  753000    1.0001187    24.084118    4.7186679    1.5001744    6.2188423     4.607981   0.11068694 
  754500    1.0018906    24.085187    4.7166483    1.5028322    6.2194805    4.6055733   0.11107501 
  756000    1.0008097    24.124404    4.7199851    1.5012108    6.2211958    4.6101231   0.10986193 
  757500    1.0031949    24.134202     4.720796    1.5047887    6.2255847    4.6098387   0.11095731 
  759000    0.9992052    24.109921    4.7177181    1.4988041    6.2165222    4.6080979   0.10962016 
  760500   0.99945192    24.141951    4.7182551    1.4991742    6.2174293    4.6080228   0.11023228 
  762000    1.0010266    24.167272    4.7155257    1.5015362    6.2170619    4.6078835   0.10764218 
  763500    1.0010409    24.037851    4.7199548    1.5015577    6.2215125    4.6098134   0.11014148 
  765000     1.003643    24.186044    4.7172807    1.5054608    6.2227415    4.6065168   0.11076391 
  766500   0.99929758    24.194251    4.7216751    1.4989427    6.2206178    4.6099505   0.11172464 
  768000    1.0018135    24.215967      4.71579    1.5027165    6.2185066    4.6067256   0.10906445 
  769500    1.0001237    24.154504     4.721442    1.5001819    6.2216239    4.6095823   0.11185967 
  771000    1.0012871    24.150985    4.7186066     1.501927    6.2205336    4.6091636     0.109443 
  772500   0.99908512     24.11666    4.7190749     1.498624    6.2176989    4.6106206   0.10845433 
  774000    1.0002495    24.085585     4.717986    1.5003705    6.2183566    4.6069026   0.11108343 
  775500    1.0010967    24.141515    4.7194272    1.5016413    6.2210685    4.6078998   0.11152746 
  777000   0.99863933    24.134109    4.7208454    1.4979553    6.2188007    4.6095241   0.11132134 
  778500    1.0016086    24.173888    4.7173759    1.5024092    6.2197851    4.6074376   0.10993835 
  780000   0.99921688    24.170899    4.7210838    1.4988216    6.2199055    4.6097425   0.11134139 
  781500    1.0014092    24.139287    4.7181434    1.5021101    6.2202535    4.6083125   0.10983083 
  783000   0.99992165    24.081873     4.718441    1.4998788    6.2183197    4.6093661   0.10907489 
  784500   0.99897234    24.109458    4.7160143    1.4984548     6.214469    4.6073753   0.10863895 
  786000    1.0008676    24.186176    4.7171575    1.5012976    6.2184551    4.6095295   0.10762807 
  787500    1.0010448     24.08399    4.7182666    1.5015634      6.21983    4.6080729   0.11019367 
  789000    1.0004431    24.135849    4.7206016    1.5006609    6.2212626    4.6111923    0.1094093 
  790500    1.0007929    24.083696    4.7195137    1.5011856    6.2206994    4.6071089   0.11240488 
  792000   0.99998219    24.057068    4.7148546    1.4999696    6.2148242    4.6047747   0.11007994 
  793500   0.99920985    24.115674    4.7175526    1.4988111    6.2163636    4.6064736   0.11107899 
  795000    1.0019506    24.078882    4.7196066    1.5029221    6.2225287    4.6065727   0.11303391 
  796500   0.99774004    24.144817    4.7226199    1.4966063    6.2192263    4.6114627    0.1111572 
  798000    1.0004315    24.055164    4.7175815    1.5006435     6.218225    4.6070385   0.11054298 
  799500   0.99926568    24.113473    4.7188346    1.4988948    6.2177294    4.6084244   0.11041019 
  801000    1.0033439    24.097345     4.716753    1.5050121    6.2217651    4.6071289   0.10962412 
  802500    0.9995483    24.051243    4.7188836    1.4993187    6.2182023    4.6076892   0.11119438 
  804000   0.99938028    24.105443    4.7190704    1.4990667    6.2181371     4.607842   0.11122837 
  805500     1.001927    24.134708    4.7182303    1.5028868    6.2211171    4.6071289   0.11110145 
  807000    1.0025224    24.165479    4.7192507    1.5037799    6.2230306    4.6101482   0.10910251 
  808500    1.0002673    24.153758    4.7211489    1.5003973    6.2215461    4.6096135   0.11153535 
  810000    1.0008008     24.16282    4.7211401    1.5011975    6.2223376    4.6092128   0.11192731 
  811500     1.000243    24.126632    4.7185597    1.5003607    6.2189204     4.609187   0.10937261 
  813000    1.0009807    24.180877    4.7177918    1.5014673    6.2192591    4.6090103   0.10878157 
  814500   0.99803433    24.106669    4.7204124    1.4970478    6.2174602    4.6088609    0.1115515 
  816000    1.0009936    24.188265    4.7191678    1.5014867    6.2206546    4.6085231   0.11064477 
  817500    1.0033574    24.147265    4.7201425    1.5050324    6.2251749    4.6092769   0.11086557 
  819000     1.002671    24.062481    4.7175707    1.5040028    6.2215734    4.6072778   0.11029287 
  820500    1.0017636    24.089476    4.7196155    1.5026417    6.2222572    4.6086729    0.1109426 
  822000    1.0016265    24.106333    4.7212117     1.502436    6.2236477    4.6107406   0.11047111 
  823500   0.99985612    24.096057    4.7191668    1.4997805    6.2189473    4.6083232   0.11084362 
  825000    1.0029283    24.159047    4.7208402    1.5043887    6.2252289    4.6087901   0.11205011 
  826500    1.0017244     24.12046    4.7193669    1.5025828    6.2219497     4.609257   0.11010989 
  828000    1.0034453    24.119365    4.7180413    1.5051642    6.2232055    4.6094633   0.10857807 
  829500    1.0019765    24.103288    4.7168717     1.502961    6.2198328    4.6062334    0.1106384 
  831000   0.99912206    24.170364    4.7164286    1.4986794     6.215108     4.607056   0.10937261 
  832500    1.0022272    24.122367    4.7162614     1.503337    6.2195984    4.6070092   0.10925216 
  834000    1.0006375    24.117225    4.7180975    1.5009525      6.21905    4.6081752   0.10992238 
  835500    1.0001143     24.11991    4.7187683    1.5001677    6.2189359    4.6088377   0.10993061 
  837000    1.0008764    24.077496    4.7198352    1.5013108     6.221146     4.608758   0.11107722 
  838500    1.0001766    24.097793    4.7156735    1.5002612    6.2159347    4.6047438   0.11092974 
  840000   0.99992012    24.076132    4.7183454    1.4998765    6.2182219    4.6083863   0.10995914 
  841500   0.99994758    24.149686    4.7179626    1.4999177    6.2178803    4.6071964   0.11076615 
  843000    1.0047645    24.038571    4.7159588     1.507143    6.2231018    4.6064197   0.10953911 
  844500    1.0016883    24.150114     4.719081    1.5025287    6.2216097    4.6087699   0.11031107 
  846000    1.0012619    24.108469    4.7178502    1.5018891    6.2197392    4.6079012   0.10994901 
  847500    1.0021592    24.139449    4.7188016     1.503235    6.2220366    4.6073472   0.11145439 
  849000    1.0016649     24.09031     4.719205    1.5024936    6.2216986    4.6085329   0.11067214 
  850500    1.0015321    24.071844    4.7200847    1.5022944    6.2223791    4.6091252   0.11095944 
  852000    1.0001261    24.094886    4.7211122    1.5001854    6.2212976    4.6105444   0.11056783 
  853500    1.0006058    24.190953    4.7191401    1.5009049     6.220045    4.6077543    0.1113858 
  855000    1.0004619    24.125759    4.7223437    1.5006892    6.2230329    4.6101411   0.11220263 
  856500    1.0023587    24.133172    4.7197801    1.5035343    6.2233144    4.6100296    0.1097505 
  858000   0.99931088    24.098004    4.7179487    1.4989626    6.2169113    4.6080839   0.10986484 
  859500    1.0009155    24.169952    4.7154113    1.5013695    6.2167808    4.6055196   0.10989171 
  861000    1.0003601    24.078259     4.716844    1.5005365    6.2173805    4.6081256   0.10871835 
  862500     1.002932    24.098557    4.7178758    1.5043943    6.2222702    4.6085667   0.10930917 
  864000   0.99933976    24.103249    4.7196415    1.4990059    6.2186474     4.611273   0.10836853 
  865500    1.0029203    24.114745    4.7191509    1.5043768    6.2235277    4.6109337   0.10821717 
  867000    0.9983598    24.108513    4.7172639     1.497536    6.2147999     4.607724   0.10953983 
  868500    1.0009541    24.138836    4.7196889    1.5014274    6.2211162    4.6076584   0.11203049 
  870000    1.0001188    24.140367    4.7186634    1.5001745    6.2188379    4.6074419   0.11122149 
  871500    1.0030849    24.143109    4.7181903    1.5046236    6.2228138    4.6070252   0.11116509 
  873000    1.0007707    24.055159     4.716025    1.5011523    6.2171774    4.6067311   0.10929396 
  874500    1.0006581    24.154589     4.717828    1.5009834    6.2188114    4.6070596   0.11076835 
  876000    1.0018999    24.106871    4.7188341    1.5028461    6.2216802    4.6086462   0.11018786 
  877500    1.0012038    24.113402     4.719017     1.501802     6.220819    4.6068962   0.11212075 
  879000   0.99946335    24.043456    4.7179228    1.4991913    6.2171141    4.6087297   0.10919309 
  880500    0.9999217    24.118912    4.7176527    1.4998788    6.2175315    4.6078944   0.10975825 
  882000    1.0013003    24.174208    4.7229218    1.5019467    6.2248685    4.6102087   0.11271313 
  883500    1.0013951    24.135558    4.7184661    1.5020889    6.2205549    4.6087221   0.10974392 
  885000    1.0012423    24.185061    4.7186561    1.5018597    6.2205158    4.6092729   0.10938315 
  886500    1.0011237    24.107112    4.7168992    1.5016818    6.2185811    4.6064832   0.11041609 
  888000   0.99912741    24.130335    4.7165653    1.4986874    6.2152527    4.6078806   0.10868472 
  889500    1.0026286    24.132629    4.7202258    1.5039391    6.2241649    4.6101061   0.11011973 
  891000    1.0023607    24.126435    4.7206614    1.5035373    6.2241987    4.6105329   0.11012846 
  892500    1.0017852    24.147723     4.719456     1.502674    6.2221301    4.6088697   0.11058628 
  894000   0.99982045    24.027657    4.7172848     1.499727    6.2170118    4.6073535   0.10993129 
  895500    1.0031952    24.095131    4.7196925    1.5047891    6.2244816    4.6085118   0.11118065 
  897000     1.000869    24.184501    4.7181644    1.5012998    6.2194641    4.6072444   0.11091992 
  898500    1.0016729    24.145571    4.7207698    1.5025056    6.2232754     4.609917   0.11085285 
  900000    1.0006305    24.133821    4.7175696    1.5009421    6.2185117    4.6077074   0.10986213 
  901500    1.0003466    24.188848    4.7194267    1.5005162    6.2199428    4.6093151   0.11011158 
  903000   0.99957171    24.130327    4.7191652    1.4993538     6.218519    4.6069098   0.11225535 
  904500    1.0015043     24.11493    4.7190287    1.5022527    6.2212814    4.6089692   0.11005952 
  906000    1.0002803    24.171527    4.7158882    1.5004167    6.2163049    4.6070098    0.1088784 
  907500   0.99937631    24.107469    4.7183022    1.4990608     6.217363    4.6090303   0.10927191 
  909000    1.0003631    24.079974    4.7212354    1.5005409    6.2217763     4.610201   0.11103437 
  910500   0.99787039    24.116516    4.7177754    1.4968019    6.2145773    4.6094766   0.10829879 
  912000    1.0011933     24.10695    4.7152623    1.5017862    6.2170484    4.6062324   0.10902989 
  913500    1.0002382    24.170269    4.7178284    1.5003536     6.218182    4.6069648   0.11086365 
  915000    1.0001932    24.105692    4.7193047     1.500286    6.2195907    4.6089584   0.11034629 
  916500    1.0016699    24.139225    4.7155631    1.5025012    6.2180643      4.60737   0.10819309 
  918000   0.99967779    24.118195    4.7172572     1.499513    6.2167701    4.6059239   0.11133331 
  919500   0.99985729    24.127587     4.720165    1.4997822    6.2199472    4.6099206   0.11024435 
  921000    1.0015422    24.103975    4.7188359    1.5023096    6.2211454    4.6081487   0.11068719 
  922500    1.0013529    24.178683    4.7176852    1.5020257    6.2197109    4.6082435   0.10944177 
  924000    1.0025358    24.108524    4.7169602       1.5038    6.2207602    4.6084612   0.10849904 
  925500    1.0006091    24.121689    4.7183328    1.5009099    6.2192427      4.60767   0.11066285 
  927000   0.99821426      24.1092    4.7160037    1.4973177    6.2133214    4.6073182   0.10868548 
  928500    1.0004782    24.138705    4.7193849    1.5007136    6.2200985     4.608855   0.11052985 
  930000    1.0015643    24.063107    4.7176069    1.5023427    6.2199496    4.6086152   0.10899168 
  931500    1.0029655    24.157231     4.718063    1.5044445    6.2225075    4.6083422   0.10972086 
  933000   0.99889317    24.026218    4.7194115     1.498336    6.2177475    4.6092721   0.11013941 
  934500    1.0001358    24.142775    4.7200977       1.5002    6.2202977    4.6072946   0.11280304 
  936000     1.001915    24.096507    4.7191373    1.5028688    6.2220061    4.6090796   0.11005771 
  937500    1.0013966    24.169327    4.7190854    1.5020911    6.2211766    4.6083117    0.1107737 
  939000    1.0008244    24.137628    4.7182593    1.5012329    6.2194922    4.6085351   0.10972424 
  940500    1.0023667    24.137847    4.7165657    1.5035463     6.220112    4.6064305   0.11013515 
  942000    1.0002197    24.098751     4.715306    1.5003258    6.2156318    4.6069614   0.10834456 
  943500    1.0019284    24.207827     4.718668    1.5028889    6.2215569    4.6080709   0.11059716 
  945000    1.0019551    24.083738    4.7183226     1.502929    6.2212516    4.6080961   0.11022654 
  946500    1.0017233    24.115286     4.718416    1.5025813    6.2209973    4.6104251   0.10799097 
  948000    1.0001113    24.052717     4.719408    1.5001633    6.2195713    4.6089698    0.1104382 
  949500    1.0003305    24.153349    4.7179926     1.500492    6.2184846    4.6078853   0.11010734 
  951000    1.0017526    24.131558    4.7187859    1.5026251     6.221411    4.6099584   0.10882747 
  952500   0.99949268    24.045842    4.7234587    1.4992353     6.222694    4.6110163   0.11244241 
  954000    1.0007101    24.122968    4.7180711    1.5010614    6.2191324    4.6089548   0.10911622 
  955500    1.0014508    24.084294    4.7196748    1.5021725    6.2218474    4.6069334   0.11274138 
  957000    1.0004661    24.084802    4.7177847    1.5006954    6.2184801    4.6083256   0.10945904 
  958500     1.002492    24.064963    4.7171535    1.5037343    6.2208878    4.6078181   0.10933541 
  960000   0.99973384    24.122374    4.7161631     1.499597    6.2157602    4.6067479   0.10941528 
  961500     1.001109    24.104238    4.7206697    1.5016598    6.2223294    4.6089743   0.11169543 
  963000   0.99990522     24.11603    4.7187747    1.4998541    6.2186288    4.6065877   0.11218699 
  964500   0.99831814     24.16558    4.7214253    1.4974735    6.2188988     4.611084   0.11034124 
  966000    1.0003134    24.117933    4.7153151    1.5004663    6.2157814    4.6062338   0.10908126 
  967500    1.0012303    24.125795    4.7190542    1.5018418     6.220896    4.6076955   0.11135865 
  969000    1.0012344    24.127713    4.7165328    1.5018478    6.2183806    4.6064941   0.11003873 
  970500   0.99760449    24.121418    4.7176086     1.496403    6.2140116    4.6077725   0.10983608 
  972000   0.99996519     24.02853    4.7176496    1.4999441    6.2175936    4.6083024   0.10934713 
  973500      1.00092    24.147615    4.7170304    1.5013763    6.2184067    4.6078587   0.10917168 
  975000    1.0000159    24.154973    4.7139007    1.5000202    6.2139209    4.6061481   0.10775258 
  976500    1.0003087      24.1772    4.7161953    1.5004594    6.2166547     4.606369    0.1098263 
  978000   0.99841589    24.171752    4.7178813    1.4976201    6.2155014    4.6075474   0.11033383 
  979500   0.99758184    24.048925    4.7187856     1.496369    6.2151546     4.608074   0.11071154 
  981000    1.0011589    24.166587    4.7186001    1.5017347    6.2203348    4.6082915   0.11030863 
  982500    1.0013182    24.165306    4.7204769    1.5019736    6.2224505    4.6084844   0.11199246 
  984000   0.99905494     24.12911    4.7193239    1.4985787    6.2179026    4.6073796   0.11194431 
  985500    1.0030659    24.196403    4.7155842    1.5045951    6.2201793     4.605118    0.1104662 
  987000    1.0009014    24.116491    4.7192254    1.5013483    6.2205737    4.6079513    0.1112741 
  988500    1.0018092    24.152647    4.7154325    1.5027101    6.2181425    4.6081229   0.10730955 
  990000    1.0018378    24.125281    4.7188095     1.502753    6.2215625    4.6060086   0.11280089 
  991500     1.000398     24.13014    4.7195532    1.5005933    6.2201465    4.6091742   0.11037896 
  993000    1.0012493     24.13693    4.7158425    1.5018703    6.2177128    4.6062305   0.10961193 
  994500    1.0019049     24.07964    4.7172097    1.5028537    6.2200633    4.6066831   0.11052653 
  996000   0.99649356    24.121726    4.7202699    1.4947366    6.2150065    4.6096916    0.1105783 
  997500    1.0008718    24.038457    4.7185003     1.501304    6.2198042    4.6076422   0.11085804 
  999000    1.0021233    24.104781    4.7178191    1.5031812    6.2210003    4.6075553   0.11026376 
 1000500    1.0017373    24.205604    4.7171244    1.5026023    6.2197267    4.6074762   0.10964822 
 1002000    1.0024714    24.097025    4.7183418    1.5037034    6.2220453    4.6065913   0.11175051 
 1003500    1.0001994    24.144601    4.7180458    1.5002953    6.2183412    4.6072351   0.11081075 
 1005000    0.9999619    24.130932    4.7170331    1.4999391    6.2169723    4.6065865   0.11044666 
 1006500    1.0006977    24.155802    4.7204461    1.5010428    6.2214889    4.6104846   0.10996148 
 1008000   0.99760032    24.050983    4.7159165    1.4963968    6.2123133     4.606596   0.10932055 
 1009500    1.0001708     24.09077    4.7217423    1.5002525    6.2219948      4.61045   0.11129226 
 1011000    1.0001103    24.156506    4.7169856    1.5001618    6.2171474     4.605771   0.11121461 
 1012500    1.0012322    24.062677    4.7165852    1.5018446    6.2184298    4.6061321   0.11045313 
 1014000    1.0040165    24.158668    4.7209753     1.506021    6.2269962    4.6091013   0.11187392 
 1015500     1.002251    24.185764    4.7196645    1.5033727    6.2230372    4.6076492   0.11201535 
 1017000   0.99966097    24.104684     4.717791    1.4994877    6.2172787    4.6088744   0.10891662 
 1018500   0.99978607    24.053054    4.7164496    1.4996754     6.216125    4.6068449   0.10960466 
 1020000    1.0008531    24.178682    4.7194731    1.5012759     6.220749    4.6077504   0.11172267 
 1021500    1.0024376     24.09394    4.7175349    1.5036527    6.2211875    4.6078089   0.10972591 
 1023000   0.99880592    24.094439    4.7179828    1.4982052     6.216188    4.6089024   0.10908042 
 1024500   0.99893868    24.099531    4.7166605    1.4984043    6.2150648    4.6082012   0.10845935 
 1026000    1.0023242    24.164654     4.720996    1.5034826    6.2244786    4.6090992   0.11189677 
 1027500    1.0032709    24.052551    4.7208218    1.5049027    6.2257244    4.6101697   0.11065206 
 1029000   0.99918237    24.130819    4.7189451    1.4987698     6.217715    4.6089969   0.10994826 
 1030500   0.99939592    23.975132     4.717706    1.4990902    6.2167962    4.6078853   0.10982071 
 1032000    1.0018989    24.084162    4.7159763    1.5028447    6.2188209    4.6072965   0.10867975 
 1033500   0.99858654    24.048402    4.7146572    1.4978761    6.2125333    4.6049137   0.10974353 
 1035000    1.0014284    24.078053    4.7187685    1.5021389    6.2209074     4.608699   0.11006954 
 1036500    1.0008934    24.100165    4.7193173    1.5013364    6.2206537    4.6075058   0.11181154 
 1038000     1.002009    24.144132    4.7201737    1.5030098    6.2231835    4.6089296   0.11124403 
 1039500    1.0006926     24.09735    4.7184734    1.5010352    6.2195086    4.6073365   0.11113695 
 1041000    1.0010667    24.156496    4.7189692    1.5015964    6.2205656     4.608157   0.11081226 
 1042500    1.0010498    24.202427    4.7182906     1.501571    6.2198616    4.6062947   0.11199588 
 1044000    1.0001597     24.09214    4.7160319    1.5002358    6.2162677     4.605482   0.11054987 
 1045500    1.0002784    24.113686    4.7204979    1.5004139    6.2209119    4.6089251    0.1115728 
 1047000    1.0025155    24.110684    4.7170192    1.5037696    6.2207888    4.6072781    0.1097411 
 1048500    1.0014938    24.109986    4.7189654     1.502237    6.2212024    4.6073809   0.11158453 
 1050000    0.9994495    24.120632    4.7214489    1.4991705    6.2206195    4.6116398    0.1098091 
 1051500   0.99939629    24.039066    4.7201991    1.4990907    6.2192898    4.6083797   0.11181941 
 1053000    1.0030287     24.20643    4.7198846    1.5045393    6.2244239    4.6080503    0.1118344 
 1054500     1.001297    24.114591    4.7180337    1.5019418    6.2199755    4.6084885   0.10954515 
 1056000    1.0015571     24.02523    4.7201335     1.502332    6.2224655    4.6087725   0.11136109 
 1057500    1.0010005    24.185007    4.7215654     1.501497    6.2230624    4.6111418    0.1104236 
 1059000    1.0011077    24.147286    4.7191031    1.5016578    6.2207609    4.6075002   0.11160297 
 1060500    1.0015112    24.124587    4.7166433    1.5022631    6.2189064    4.6087396   0.10790369 
 1062000    1.0024151    24.146352    4.7215596     1.503619    6.2251786    4.6091431   0.11241647 
 1063500     1.001983    24.103065    4.7161835    1.5029708    6.2191543    4.6061572   0.11002632 
 1065000    1.0009767    24.139522    4.7207019    1.5014613    6.2221632    4.6081679   0.11253401 
 1066500    1.0014216    24.091513    4.7179448    1.5021286    6.2200734    4.6080408   0.10990404 
 1068000    1.0003625    24.148899    4.7154803      1.50054    6.2160203    4.6060686   0.10941173 
 1069500    1.0003456    24.123093    4.7190555    1.5005147    6.2195702    4.6085909   0.11046464 
 1071000    1.0004567    24.124604    4.7168353    1.5006813    6.2175166    4.6065427   0.11029259 
 1072500    1.0012565    24.120713    4.7214701     1.501881    6.2233511    4.6095094   0.11196069 
 1074000    1.0014097    24.123789    4.7198628    1.5021109    6.2219737    4.6084547    0.1114081 
 1075500    1.0012498    24.071208     4.713761    1.5018709     6.215632    4.6063221   0.10743888 
 1077000    0.9992913     24.09898    4.7158419    1.4989332    6.2147751    4.6065026   0.10933933 
 1078500    1.0007487    24.117088    4.7170565    1.5011194    6.2181759    4.6067341   0.11032247 
 1080000    1.0028097    24.098935     4.719345    1.5042109    6.2235559    4.6082635   0.11108149 
 1081500    1.0035426    24.018698    4.7207343    1.5053102    6.2260445    4.6100441   0.11069027 
 1083000   0.99995522    24.130322    4.7164763    1.4999291    6.2164054    4.6064405   0.11003579 
 1084500   0.99860029    24.141406    4.7184615    1.4978967    6.2163582    4.6091041   0.10935742 
 1086000    1.0013034    24.196986    4.7197366    1.5019513     6.221688     4.609044   0.11069263 
 1087500    1.0018276    24.106577    4.7176065    1.5027377    6.2203442    4.6072196   0.11038698 
 1089000   0.99937728    24.038818    4.7170426    1.4990622    6.2161048    4.6072788   0.10976383 
 1090500   0.99871133    24.054729    4.7204112    1.4980633    6.2184745    4.6089344   0.11147679 
 1092000   0.99976446    24.105385    4.7149856     1.499643    6.2146286    4.6064801   0.10850552 
 1093500   0.99952061    24.081331    4.7171836    1.4992772    6.2164608    4.6074471   0.10973647 
 1095000     1.000869    24.122732    4.7173029    1.5012997    6.2186026    4.6074573   0.10984556 
 1096500    1.0035107    24.097646     4.721093    1.5052623    6.2263553    4.6089648   0.11212823 
 1098000    1.0007535    24.186857    4.7191837    1.5011265    6.2203102    4.6077331   0.11145052 
 1099500    1.0011029    24.141903    4.7173827    1.5016506    6.2190332    4.6067832   0.11059942 
 1101000   0.99966748    24.099913    4.7161659    1.4994975    6.2156634    4.6076531   0.10851272 
 1102500    0.9992826    24.212835    4.7212717    1.4989202    6.2201919    4.6101739   0.11109777 
 1104000    1.0013193    24.110506    4.7164206    1.5019753    6.2183959    4.6068074   0.10961319 
 1105500    1.0005279    24.095614    4.7163935    1.5007882    6.2171816    4.6055868   0.11080667 
 1107000    1.0003628    24.123783    4.7170096    1.5005405    6.2175501    4.6070125   0.10999706 
 1108500    1.0005905    24.137547    4.7205817    1.5008821    6.2214638    4.6088693   0.11171239 
 1110000    1.0010021    24.161323    4.7150144    1.5014995    6.2165139    4.6064805   0.10853394 
 1111500   0.99903207    24.087613    4.7162711    1.4985444    6.2148155    4.6051892   0.11108194 
 1113000    1.0013904    24.122345    4.7208623    1.5020819    6.2229441    4.6102367    0.1106256 
 1114500    1.0022714     24.14191    4.7153888    1.5034033    6.2187921    4.6064509   0.10893786 
 1116000    1.0006157    24.141839    4.7181109    1.5009198    6.2190307    4.6075549   0.11055594 
 1117500   0.99947371    24.160548    4.7177702    1.4992068     6.216977    4.6068008   0.11096936 
 1119000    1.0004044    24.100412    4.7193377     1.500603    6.2199406    4.6088012   0.11053645 
 1120500    1.0013473    24.147597    4.7188333    1.5020172    6.2208505    4.6084274   0.11040582 
 1122000   0.99933453    24.084294    4.7192989    1.4989981     6.218297    4.6089386   0.11036033 
 1123500    1.0001179    24.153313    4.7175851    1.5001732    6.2177583    4.6064944   0.11109067 
 1125000   0.99947204    24.086888    4.7188703    1.4992043    6.2180746    4.6085907   0.11027955 
 1126500    1.0026617    24.187949    4.7175753    1.5039888    6.2215641    4.6080651   0.10951021 
 1128000   0.99889497    24.022691    4.7175393    1.4983387     6.215878    4.6074355   0.11010378 
 1129500   0.99911483    24.092964    4.7204506    1.4986685    6.2191191    4.6084557   0.11199484 
 1131000    1.0010998      24.1172    4.7154895    1.5016459    6.2171354    4.6056936   0.10979583 
 1132500    1.0006127    24.085032    4.7162794    1.5009153    6.2171948    4.6071839   0.10909553 
 1134000     1.001352    24.108313    4.7148797    1.5020243     6.216904    4.6062076   0.10867215 
 1135500   0.99859584    24.176749    4.7182524      1.49789    6.2161424    4.6083914   0.10986096 
 1137000    1.0009935     24.11658    4.7177602    1.5014866    6.2192468    4.6073728   0.11038743 
 1138500   0.99945237     24.03938    4.7198844    1.4991748    6.2190592    4.6089572   0.11092717 
 1140000    1.0020778    24.184797     4.716732     1.503113     6.219845    4.6064293   0.11030271 
 1141500    1.0016018    24.130089    4.7202078     1.502399    6.2226069    4.6088577   0.11135018 
 1143000   0.99927826    24.061656    4.7193187    1.4989137    6.2182324    4.6092247   0.11009401 
 1144500    1.0013462    24.100147    4.7215263    1.5020156    6.2235419    4.6102584   0.11126786 
 1146000    1.0021357    24.116477    4.7202424    1.5031998    6.2234423    4.6106775   0.10956495 
 1147500    1.0014864    24.093051    4.7172779    1.5022259    6.2195038    4.6070525   0.11022535 
 1149000    1.0001775    24.102549    4.7176991    1.5002625    6.2179616    4.6072734   0.11042567 
 1150500    1.0009319    24.077858    4.7186549    1.5013941     6.220049    4.6079862   0.11066873 
 1152000    1.0024062    24.147842    4.7166371    1.5036055    6.2202426    4.6071098   0.10952729 
 1153500    1.0014674    24.115553    4.7155483    1.5021973    6.2177456    4.6063049   0.10924339 
 1155000    1.0008157    24.088098    4.7190699    1.5012199    6.2202898    4.6069719   0.11209805 
 1156500     1.000734    24.066379    4.7142678    1.5010973     6.215365    4.6063486   0.10791913 
 1158000    1.0018144    24.094477    4.7182628    1.5027179    6.2209807    4.6073608   0.11090201 
 1159500    1.0014089    24.099409    4.7159821    1.5021097    6.2180918    4.6074088   0.10857335 
 1161000     1.001931    24.100021    4.7197501    1.5028928     6.222643    4.6089676   0.11078253 
 1162500    1.0003408    24.079044    4.7204172    1.5005075    6.2209248     4.608457   0.11196023 
 1164000    1.0050357    24.116283    4.7200759    1.5075498    6.2276258    4.6102507    0.1098252 
 1165500    1.0006474    24.131433    4.7176499    1.5009674    6.2186173    4.6072144   0.11043557 
 1167000   0.99976799     24.11319    4.7191988    1.4996483     6.218847    4.6081904   0.11100838 
 1168500    1.0013182     24.18063    4.7173006    1.5019736    6.2192742    4.6072015   0.11009909 
 1170000   0.99839404    24.105987    4.7177749    1.4975874    6.2153623    4.6066066    0.1111683 
 1171500    1.0018589    24.123997    4.7179868    1.5027846    6.2207714    4.6075365    0.1104504 
 1173000    1.0016291    24.192467    4.7175796    1.5024399    6.2200195     4.605915   0.11166462 
 1174500    1.0017408    24.132222    4.7196618    1.5026074    6.2222692    4.6081299   0.11153191 
 1176000   0.99954414    24.106361    4.7193759    1.4993125    6.2186884    4.6071266   0.11224933 
 1177500   0.99966054    24.185374    4.7196521    1.4994871    6.2191392    4.6068255   0.11282663 
 1179000    1.0019786    24.111797    4.7193622    1.5029641    6.2223263    4.6082114   0.11115079 
 1180500   0.99840718     24.08574     4.720013    1.4976071      6.21762    4.6089652   0.11104775 
 1182000    1.0018543     24.13172     4.717909    1.5027778    6.2206868    4.6078981   0.11001093 
 1183500    1.0016493    24.083184    4.7165066    1.5024702    6.2189768     4.606788   0.10971866 
 1185000    1.0021319    24.069864    4.7169673    1.5031941    6.2201614    4.6069922   0.10997507 
 1186500   0.99858686    24.069941     4.717869    1.4978766    6.2157455    4.6069553   0.11091363 
 1188000   0.99932169    24.113633    4.7194609    1.4989788    6.2184397     4.608784   0.11067684 
 1189500    1.0002335    24.128939     4.715097    1.5003465    6.2154435    4.6072094    0.1078876 
 1191000    1.0008394    24.148647    4.7182733    1.5012553    6.2195286    4.6076865    0.1105868 
 1192500   0.99979124    24.104749    4.7147534    1.4996831    6.2144366    4.6059269    0.1088265 
 1194000    1.0000875    24.104575    4.7187758    1.5001276    6.2189034    4.6084818   0.11029396 
 1195500   0.99959799    24.136224    4.7174923    1.4993933    6.2168856    4.6081212   0.10937115 
 1197000     1.000554    24.142443    4.7222338    1.5008273    6.2230611    4.6091567   0.11307715 
 1198500   0.99839725    24.109428    4.7162301    1.4975922    6.2138222    4.6075093   0.10872083 
 1200000    1.0020007    24.023543    4.7209714    1.5029973    6.2239687    4.6096432   0.11132815 
 1201500    1.0012935    24.119804     4.717205    1.5019366    6.2191416    4.6073535   0.10985143 
 1203000   0.99995687     24.14121    4.7214698    1.4999316    6.2214014    4.6083535   0.11311627 
 1204500    0.9996851    24.105436    4.7182715    1.4995239    6.2177954    4.6078909   0.11038061 
 1206000    1.0019904    24.027705    4.7157192    1.5029819    6.2187011    4.6077163   0.10800292 
 1207500    1.0017031    24.096394    4.7165901     1.502551    6.2191411    4.6069245   0.10966559 
 1209000    1.0006446    24.168444    4.7178221    1.5009632    6.2187853    4.6073835   0.11043854 
 1210500    1.0019864    24.069132     4.719242    1.5029758    6.2222178    4.6095014   0.10974058 
 1212000   0.99948875    24.157801    4.7164158    1.4992294    6.2156452    4.6070761   0.10933967 
 1213500   0.99913479    24.122834    4.7138766    1.4986985    6.2125751    4.6046308    0.1092458 
 1215000   0.99838936    23.987493    4.7158261    1.4975803    6.2134065    4.6052828   0.11054332 
 1216500     1.000886    24.131196    4.7195763    1.5013253    6.2209017    4.6094599   0.11011639 
 1218000   0.99861429    24.082051    4.7161336    1.4979177    6.2140513    4.6071816   0.10895196 
 1219500    0.9991636     24.15429    4.7207713    1.4987417     6.219513    4.6090298   0.11174144 
 1221000    1.0023432    24.110313    4.7187038    1.5035111    6.2222149    4.6076152    0.1110886 
 1222500    1.0008759     24.12391    4.7173241    1.5013102    6.2186343     4.607224   0.11010011 
 1224000    1.0009745    24.054495    4.7184212     1.501458    6.2198792    4.6085356    0.1098856 
 1225500    1.0004468    24.079521    4.7155106    1.5006665    6.2161771    4.6066736   0.10883696 
 1227000    1.0002445    24.190968    4.7192798    1.5003631    6.2196429    4.6076523    0.1116275 
 1228500   0.99968341    24.129462    4.7168771    1.4995214    6.2163985    4.6072408   0.10963637 
 1230000   0.99916097    24.097351    4.7209858    1.4987377    6.2197235    4.6085703   0.11241549 
 1231500    1.0005974    24.119624    4.7148859    1.5008924    6.2157784    4.6068557   0.10803026 
 1233000    1.0009568    24.156631     4.716925    1.5014315    6.2183565    4.6081167   0.10880826 
 1234500   0.99958927    24.104568    4.7183004    1.4993802    6.2176806    4.6056565   0.11264389 
 1236000   0.99891763    24.123335    4.7175809    1.4983727    6.2159536    4.6069946   0.11058625 
 1237500    1.0013426    24.074801    4.7201481    1.5020101    6.2221583     4.610349   0.10979911 
 1239000    1.0010069    24.090755    4.7182053    1.5015067     6.219712    4.6065847    0.1116206 
 1240500    1.0015651    24.060294    4.7185595    1.5023439    6.2209034    4.6079324   0.11062704 
 1242000    1.0017257    24.167061    4.7161998    1.5025849    6.2187847    4.6074241   0.10877571 
 1243500   0.99896361    24.095793    4.7181202    1.4984417    6.2165619     4.607431   0.11068918 
 1245000    1.0009664     24.10877    4.7181098    1.5014459    6.2195557    4.6061465   0.11196338 
 1246500    1.0012826    24.147384    4.7185027    1.5019202    6.2204229    4.6081025   0.11040018 
 1248000    1.0015044    24.062296     4.720539    1.5022529    6.2227919    4.6093196   0.11121939 
 1249500    1.0036532    24.096475    4.7209674     1.505476    6.2264434    4.6090333   0.11193409 
 1251000    1.0012357    24.125123    4.7188648    1.5018499    6.2207147    4.6099852   0.10887962 
 1252500    1.0014629     24.12971    4.7195133    1.5021907     6.221704    4.6082104   0.11130292 
 1254000    1.0013861    24.187645    4.7196371    1.5020754    6.2217125     4.609155   0.11048206 
 1255500    1.0009573     24.10946     4.716813    1.5014322    6.2182451    4.6070716   0.10974138 
 1257000   0.99959768    24.059812    4.7177282    1.4993928     6.217121     4.608138   0.10959027 
 1258500    1.0013067    24.125292    4.7191061    1.5019563    6.2210624     4.607999   0.11110708 
 1260000   0.99991992    24.113343    4.7159764    1.4998762    6.2158525    4.6057018   0.11027459 
 1261500    1.0046822    24.118312      4.71647    1.5070195    6.2234896    4.6070971    0.1093729 
 1263000    1.0028067    24.178171    4.7204155    1.5042063    6.2246217    4.6095543   0.11086114 
 1264500    1.0026042    24.118779    4.7176183    1.5039026    6.2215209    4.6075905   0.11002783 
 1266000    1.0003677    24.141149     4.718064    1.5005479    6.2186119    4.6061554    0.1119086 
 1267500    1.0005069    24.105959     4.719216    1.5007566    6.2199727    4.6080006   0.11121548 
 1269000    1.0015882    24.113304    4.7177674    1.5023785     6.220146    4.6086994   0.10906807 
 1270500    1.0003623    24.158158    4.7160578    1.5005398    6.2165976    4.6058709   0.11018696 
 1272000   0.99921443    24.125783    4.7203557    1.4988179    6.2191737    4.6089662    0.1113895 
 1273500    1.0030666    24.147351    4.7148827    1.5045962    6.2194789    4.6048919   0.10999086 
 1275000    1.0012394    24.120678    4.7173401    1.5018554    6.2191955    4.6070152   0.11032492 
 1276500   0.99993761    24.086223    4.7170209    1.4999027    6.2169236    4.6054968   0.11152404 
 1278000    1.0015135    24.189294    4.7179095    1.5022665     6.220176    4.6070027   0.11090673 
 1279500    1.0009693    24.182722    4.7163676    1.5014502    6.2178179     4.606672   0.10969568 
 1281000    1.0006456    24.098014    4.7143732    1.5009647    6.2153379    4.6052859   0.10908731 
 1282500    1.0002625    24.047067    4.7180742    1.5003901    6.2184642    4.6076583   0.11041583 
 1284000   0.99949558    24.108549    4.7161649    1.4992397    6.2154046    4.6053206   0.11084434 
 1285500    1.0012348    24.111525    4.7200522    1.5018485    6.2219007    4.6079878   0.11206431 
 1287000    1.0015075    24.033835     4.717817    1.5022575    6.2200745    4.6073296   0.11048743 
 1288500   0.99869754    24.080093    4.7185716    1.4980426    6.2166142    4.6075081   0.11106348 
 1290000    1.0005123    24.116243    4.7166186    1.5007647    6.2173832    4.6073013   0.10931726 
 1291500    1.0018296      24.1035    4.7168595    1.5027406    6.2196001    4.6059886   0.11087084 
 1293000   0.99901174     24.15621    4.7195884    1.4985139    6.2181023    4.6076987   0.11188968 
 1294500     1.002961    24.099959    4.7185912    1.5044378     6.223029    4.6073608   0.11123043 
 1296000    1.0026513    24.095673    4.7178314    1.5039732    6.2218046    4.6079639   0.10986756 
 1297500    1.0015021    24.195236     4.719611    1.5022494    6.2218604    4.6068537   0.11275738 
 1299000     1.000213    24.087915    4.7206351    1.5003158    6.2209509    4.6084977   0.11213734 
 1300500    1.0000606    24.119776    4.7201579    1.5000871     6.220245    4.6094689   0.11068906 
 1302000     1.001055    24.089839    4.7177261    1.5015787    6.2193048    4.6060539   0.11167219 
 1303500    1.0009308    24.108969    4.7175987    1.5013925    6.2189912    4.6055493   0.11204938 
 1305000    1.0011771      24.1984    4.7152513    1.5017619    6.2170131    4.6054675   0.10978372 
 1306500   0.99946154    24.075829    4.7177164    1.4991886     6.216905    4.6062945   0.11142185 
 1308000   0.99950884    24.050635    4.7157123    1.4992595    6.2149718    4.6062532   0.10945912 
 1309500    1.0002155    24.107374    4.7170437    1.5003195    6.2173632    4.6069207   0.11012306 
 1311000    1.0006529    24.145695    4.7179992    1.5009756    6.2189748    4.6072786   0.11072056 
 1312500    1.0011794    24.151496    4.7183113    1.5017653    6.2200766    4.6076002    0.1107111 
 1314000   0.99821812    24.105427    4.7203471    1.4973235    6.2176706    4.6079997   0.11234742 
 1315500   0.99944213    24.067334    4.7189094    1.4991595    6.2180689    4.6075292   0.11138025 
 1317000    1.0005268    24.112323    4.7152798    1.5007865    6.2160663    4.6064086   0.10887119 
 1318500    1.0007736    24.122421     4.720025    1.5011567    6.2211818     4.608458   0.11156704 
 1320000    1.0010357     24.13512    4.7168709    1.5015499    6.2184208     4.606219   0.11065185 
 1321500    1.0017015    24.097089    4.7211589    1.5025485    6.2237074    4.6078347   0.11332427 
 1323000    1.0008855    24.048138    4.7184805    1.5013245     6.219805    4.6083233   0.11015728 
 1324500    1.0026226    24.097281    4.7189045    1.5039302    6.2228347    4.6074486   0.11145594 
 1326000    1.0003439    24.127371    4.7159842    1.5005122    6.2164964    4.6055559   0.11042834 
 1327500   0.99997847    24.112508    4.7161467     1.499964    6.2161107     4.606623   0.10952374 
 1329000   0.99877983    24.080737    4.7167197     1.498166    6.2148857    4.6055136   0.11120612 
 1330500    1.0014437    24.149492    4.7153279    1.5021618    6.2174897    4.6061385   0.10918942 
 1332000    1.0016256    24.159194    4.7220547    1.5024347    6.2244894    4.6106648   0.11138995 
 1333500    1.0024128    24.071625    4.7167119    1.5036155    6.2203274    4.6076595   0.10905244 
 1335000    1.0023002    24.137196    4.7159045    1.5034466    6.2193511    4.6068659   0.10903859 
 1336500    1.0022338    24.125171    4.7177807    1.5033469    6.2211277    4.6058398   0.11194095 
 1338000    1.0019056    24.055124    4.7190279    1.5028547    6.2218826    4.6093244   0.10970349 
 1339500    1.0001748    24.062369    4.7164201    1.5002586    6.2166787    4.6056923   0.11072779 
 1341000    1.0004049    24.038271    4.7172749    1.5006037    6.2178786    4.6064407   0.11083423 
 1342500    1.0010218    24.057539    4.7172859     1.501529    6.2188149    4.6073944   0.10989157 
 1344000   0.99731939    24.135549    4.7176124    1.4959754    6.2135878    4.6077163   0.10989612 
 1345500    1.0005749    24.132189    4.7201047    1.5008586    6.2209634    4.6098024   0.11030235 
 1347000     1.001357    24.123211    4.7164828    1.5020318    6.2185147    4.6053487   0.11113411 
 1348500    1.0004966    24.200752    4.7174993    1.5007413    6.2182406    4.6066548   0.11084451 
 1350000    1.0012267    24.070419    4.7157861    1.5018363    6.2176224    4.6058595   0.10992657 
 1351500     1.000435    24.029675    4.7168516    1.5006487    6.2175004    4.6067744    0.1100772 
 1353000    1.0001817    24.054636    4.7195458    1.5002688    6.2198146    4.6083795   0.11116635 
 1354500    1.0016107    24.134449    4.7163036    1.5024123    6.2187159    4.6071101   0.10919347 
 1356000    1.0028155      24.1119    4.7163788    1.5042195    6.2205983    4.6059646    0.1104142 
 1357500    0.9999643    24.094074    4.7193365    1.4999427    6.2192792    4.6065749   0.11276157 
 1359000    1.0028016     24.10006    4.7189491    1.5041986    6.2231477    4.6065211   0.11242804 
 1360500   0.99977231    24.154478    4.7182247    1.4996548    6.2178795    4.6068025   0.11142228 
 1362000    1.0000679    24.153051    4.7171059    1.5000982    6.2172041    4.6068521    0.1102538 
 1363500    1.0019566    24.129447    4.7175034    1.5029312    6.2204346    4.6062561    0.1112473 
 1365000   0.99906678    24.144035     4.716784    1.4985965    6.2153805     4.606275   0.11050901 
 1366500    1.0033684    24.174705    4.7182763    1.5050488    6.2233251     4.608645   0.10963128 
 1368000    1.0003259    24.093208    4.7189006    1.5004851    6.2193858    4.6074022   0.11149847 
 1369500    0.9992196    23.995816    4.7194785    1.4988257    6.2183042     4.609468   0.11001049 
 1371000    1.0024944    24.022017    4.7178435    1.5037378    6.2215813    4.6074699   0.11037356 
 1372500     1.000067    24.022457    4.7196077    1.5000968    6.2197045    4.6068848   0.11272298 
 1374000    1.0012451    24.122166    4.7169432    1.5018639    6.2188071    4.6088947   0.10804851 
 1375500    1.0014677    24.145447     4.717294    1.5021978    6.2194919    4.6074517   0.10984233 
 1377000    1.0016084     24.11402     4.717139    1.5024089    6.2195479    4.6068411   0.11029795 
 1378500   0.99993044    24.070155      4.71729    1.4998919    6.2171819    4.6082544   0.10903557 
 1380000    0.9991186    24.173254    4.7173977    1.4986742    6.2160719    4.6073317   0.11006606 
 1381500    1.0013977    24.137064    4.7181749    1.5020929    6.2202678    4.6067186   0.11145631 
 1383000    1.0005797    24.157608    4.7170644    1.5008658    6.2179302    4.6064402   0.11062417 
 1384500   0.99999115    24.100949    4.7202075     1.499983    6.2201905    4.6073016   0.11290587 
 1386000    1.0007099    24.145161    4.7182451    1.5010611    6.2193062    4.6063266   0.11191845 
 1387500   0.99995607    24.139778    4.7182511    1.4999304    6.2181815     4.607142   0.11110907 
 1389000    1.0003945    24.106743    4.7187089     1.500588    6.2192969    4.6083487   0.11036018 
 1390500   0.99921598    24.059385    4.7186586    1.4988203    6.2174789    4.6076171   0.11104147 
 1392000    1.0016365    24.104881    4.7195234     1.502451    6.2219744    4.6071489   0.11237445 
 1393500    1.0003842    24.158024    4.7199058    1.5005725    6.2204783    4.6091705   0.11073525 
 1395000   0.99957647    24.157577    4.7168376     1.499361    6.2161986    4.6065476   0.11029007 
 1396500    1.0014048    24.114013    4.7168284    1.5021035    6.2189319    4.6064117   0.11041673 
 1398000   0.99793625    24.183431    4.7163821    1.4969007    6.2132827    4.6065086   0.10987345 
 1399500     1.000928    24.190177    4.7178611    1.5013883    6.2192494    4.6077166   0.11014449 
 1401000    1.0013774    24.161804    4.7190719    1.5020624    6.2211343    4.6074694   0.11160246 
 1402500   0.99845676    24.107088    4.7170575    1.4976814    6.2147389    4.6058943   0.11116318 
 1404000    1.0005857    24.093511    4.7197183    1.5008749    6.2205932    4.6087066   0.11101174 
 1405500    1.0017851    24.175283    4.7180491    1.5026739     6.220723    4.6077298   0.11031925 
 1407000    1.0002133    24.082039    4.7175556    1.5003162    6.2178718    4.6074775    0.1100781 
 1408500    1.0006706    24.155783    4.7194582    1.5010022    6.2204604    4.6082019   0.11125621 
 1410000    1.0005096    24.112656    4.7189469    1.5007606    6.2197076    4.6081389   0.11080802 
 1411500   0.99937932    24.105443    4.7193488    1.4990653     6.218414    4.6076449   0.11170382 
 1413000    1.0006013    24.073081    4.7196725    1.5008983    6.2205708    4.6089332   0.11073931 
 1414500     1.001322    24.061446    4.7186744    1.5019792    6.2206537     4.606596   0.11207844 
 1416000    1.0004812    24.068541     4.717611    1.5007181    6.2183291    4.6070311   0.11057996 
 1417500    1.0000339    24.171948     4.720745    1.5000472    6.2207922    4.6097648   0.11098024 
 1419000   0.99888707    24.111856    4.7174138    1.4983269    6.2157407    4.6066882   0.11072559 
 1420500     1.000282    24.077635     4.718689    1.5004193    6.2191083    4.6082398   0.11044918 
 1422000   0.99901262    24.079157    4.7160962    1.4985152    6.2146114    4.6075498   0.10854642 
 1423500   0.99795394    24.128659    4.7180749    1.4969272    6.2150021    4.6082442   0.10983076 
 1425000     0.999689    24.082485    4.7191208    1.4995298    6.2186506    4.6074679   0.11165286 
 1426500    0.9994273    24.130768    4.7168793    1.4991372    6.2160165    4.6069316   0.10994772 
 1428000    1.0009261    24.089741    4.7166482    1.5013854    6.2180336    4.6067436   0.10990455 
 1429500   0.99987739    24.083857    4.7164081    1.4998124    6.2162205    4.6065789   0.10982917 
 1431000   0.99947174    24.179934     4.718674    1.4992039    6.2178779     4.608107   0.11056703 
 1432500    1.0007127    24.127123    4.7170078    1.5010653    6.2180731    4.6068278   0.11018003 
 1434000   0.99967474     24.09256    4.7176154    1.4995084    6.2171238    4.6072206   0.11039477 
 1435500     1.000968    24.131406    4.7154901    1.5014483    6.2169383    4.6069467   0.10854331 
 1437000    1.0003135    24.113199    4.7187922    1.5004665    6.2192587    4.6081113    0.1106809 
 1438500    1.0002285    24.112495    4.7164902     1.500339    6.2168292     4.606929   0.10956123 
 1440000    1.0008789     24.01371    4.7170541    1.5013147    6.2183688     4.606997    0.1100571 
 1441500    1.0014747    24.171001    4.7181624    1.5022084    6.2203708    4.6078167   0.11034577 
 1443000   0.99932101    24.140767    4.7182556    1.4989778    6.2172334    4.6069103   0.11134528 
 1444500    1.0005937     24.14133    4.7175985    1.5008869    6.2184854    4.6069716   0.11062696 
 1446000    1.0001656    24.100692    4.7192652    1.5002447      6.21951    4.6080622   0.11120299 
 1447500    1.0005413    24.092132    4.7164553    1.5008082    6.2172635    4.6055974   0.11085792 
 1449000   0.99880587    24.094824    4.7180275    1.4982051    6.2162326    4.6073501   0.11067743 
 1450500   0.99957097    24.080631    4.7176257    1.4993527    6.2169785    4.6079202   0.10970557 
 1452000    1.0025211    24.132652    4.7180648    1.5037779    6.2218427    4.6065231   0.11154172 
 1453500    1.0014402    24.065373    4.7195292    1.5021566    6.2216858     4.607216   0.11231318 
 1455000   0.99942108    24.079159    4.7152404    1.4991279    6.2143683    4.6045421   0.11069832 
 1456500    1.0018921      24.1097    4.7186124    1.5028344    6.2214468    4.6068246   0.11178786 
 1458000    1.0005312    24.126571     4.718186     1.500793    6.2189791    4.6085046   0.10968144 
 1459500    0.9990278     24.06918    4.7189946     1.498538    6.2175326    4.6067076   0.11228695 
 1461000    1.0006936    24.137641    4.7199441    1.5010367    6.2209808    4.6079041      0.11204 
 1462500    1.0013017    24.133516    4.7192742    1.5019488     6.221223    4.6078251   0.11144906 
 1464000     1.000808    24.162008    4.7181112    1.5012083    6.2193195    4.6057432   0.11236799 
 1465500    1.0003352    24.071656     4.719611     1.500499      6.22011    4.6082474   0.11136355 
 1467000    1.0014453    24.021803    4.7194903    1.5021642    6.2216545    4.6081881   0.11130221 
 1468500    1.0025723    24.173715    4.7170866    1.5038547    6.2209413    4.6066224   0.11046411 
 1470000    1.0030604    24.051789    4.7163995    1.5045868    6.2209864      4.60664   0.10975955 
 1471500    1.0002733    24.124839    4.7161255    1.5004062    6.2165317    4.6054959   0.11062957 
 1473000     1.001052     24.08563    4.7187002    1.5015742    6.2202744    4.6074078   0.11129237 
 1474500    1.0014658    24.084836    4.7187905    1.5021949    6.2209854    4.6077843   0.11100615 
 1476000     1.000007    24.086488    4.7166532    1.5000067      6.21666    4.6061874   0.11046584 
 1477500    1.0005072      24.1536    4.7174416    1.5007571    6.2181987    4.6073723   0.11006926 
 1479000    1.0016046     24.14718    4.7182827    1.5024032    6.2206858      4.60935   0.10893269 
 1480500    1.0000119    24.110072    4.7178151    1.5000142    6.2178293    4.6074914   0.11032372 
 1482000    1.0006221    24.098781    4.7180329    1.5009295    6.2189624    4.6060994   0.11193351 
 1483500     1.001214     24.10358    4.7202438    1.5018173    6.2220611    4.6087915   0.11145229 
 1485000     1.002561    24.098902    4.7168694    1.5038378    6.2207072    4.6076173   0.10925212 
 1486500   0.99924501     24.19176    4.7150863    1.4988638    6.2139501    4.6055683   0.10951807 
 1488000   0.99988999     24.08409     4.716601    1.4998313    6.2164322    4.6075088   0.10909215 
 1489500   0.99940753    24.067498    4.7195902    1.4991076    6.2186978    4.6079177   0.11167252 
 1491000    0.9995347    24.118214     4.714122    1.4992983    6.2134204    4.6043933   0.10972879 
 1492500    1.0007891    24.103457    4.7190724    1.5011799    6.2202522    4.6084629   0.11060952 
 1494000   0.99730322     24.05565    4.7147548    1.4959511     6.210706    4.6055233   0.10923157 
 1495500    1.0003634    24.169267    4.7155547    1.5005414    6.2160962    4.6086216   0.10693311 
 1497000     1.001732    24.035369    4.7193456    1.5025943    6.2219399    4.6080746     0.111271 
 1498500    1.0011882    24.113454    4.7195434    1.5017786     6.221322    4.6079227   0.11162067 
 1500000     1.001805    24.115216    4.7191416    1.5027037    6.2218453    4.6083531   0.11078847 
Loop time of 45707.5 on 24 procs for 1500000 steps with 403744 atoms

Performance: 5670.840 tau/day, 32.817 timesteps/s
98.7% CPU use with 24 MPI tasks x no OpenMP threads

MPI task timing breakdown:
Section |  min time  |  avg time  |  max time  |%varavg| %total
---------------------------------------------------------------
Pair    | 38237      | 39000      | 39821      | 218.0 | 85.33
Bond    | 80.874     | 110.07     | 160.19     | 169.5 |  0.24
Neigh   | 1769.8     | 1770.4     | 1771       |   0.9 |  3.87
Comm    | 2759.7     | 3593.5     | 4362.2     | 721.8 |  7.86
Output  | 0.11691    | 0.13353    | 0.16386    |   3.9 |  0.00
Modify  | 421.39     | 432.98     | 453.96     |  41.6 |  0.95
Other   |            | 800.3      |            |       |  1.75

Nlocal:    16822.7 ave 16893 max 16742 min
Histogram: 2 1 3 0 5 3 2 5 1 2
Nghost:    23939.1 ave 24028 max 23860 min
Histogram: 2 1 3 3 5 4 2 1 2 1
Neighs:    2.852e+06 ave 2.88885e+06 max 2.80788e+06 min
Histogram: 1 1 4 3 2 3 1 4 3 2

Total # of neighbors = 68447983
Ave neighs/atom = 169.533
Ave special neighs/atom = 0.0834588
Neighbor list builds = 15169
Dangerous builds = 0
reset_timestep                  0

# Production
group 				all type 1 2 3 4 5
403744 atoms in group all
group                           aroma_ring type 3
2016 atoms in group aroma_ring
group                           asfalteno type 3 4 5
3744 atoms in group asfalteno

#MSD computation
compute				chunk_aroma_ring aroma_ring chunk/atom molecule nchunk once ids once compress yes
compute				com_aroma_ring aroma_ring com/chunk chunk_aroma_ring
fix				2 aroma_ring ave/time 1 6000 6000 c_com_aroma_ring[*] mode vector file pos_CoM.out #these positions are already unwrapped

# Stress computation
compute				peratom asfalteno stress/atom NULL
compute				p asfalteno reduce sum c_peratom[4] c_peratom[5] c_peratom[6]   #  Pxy, Pxz, Pyz
variable			n_total equal count(all)
variable			v equal vol
variable			n_asfal equal count(asfalteno)
variable 			conversion equal ${v}/${n_total}*${n_asfal} # As stress/atom is in Pressure*volume units, I need to fix it by dividing the quantities by the volume of atoms in the group
variable 			conversion equal 134329.97038876/${n_total}*${n_asfal} 
variable 			conversion equal 134329.97038876/403744*${n_asfal} 
variable 			conversion equal 134329.97038876/403744*3744 
variable 			pxy equal -c_p[1]/${conversion}
variable 			pxy equal -c_p[1]/1245.66906043314
variable 			pxz equal -c_p[2]/${conversion}
variable 			pxz equal -c_p[2]/1245.66906043314
variable 			pyz equal -c_p[3]/${conversion}
variable 			pyz equal -c_p[3]/1245.66906043314
fix				3 all ave/time 1 10 10 v_pxy v_pxz v_pyz file stress.dat

#IFT computation
				#converter KbT/rc² para mN/m
variable			kb equal 1.38064852E-23  # J/K
variable			temperature equal 298 # K
variable			cuttof_radius equal 6.74e-10 # m
variable			conversion0 equal ${kb}*${temperature}/${cuttof_radius}/${cuttof_radius} # N/m
variable			conversion0 equal 1.38064852e-23*${temperature}/${cuttof_radius}/${cuttof_radius} 
variable			conversion0 equal 1.38064852e-23*298/${cuttof_radius}/${cuttof_radius} 
variable			conversion0 equal 1.38064852e-23*298/6.74e-10/${cuttof_radius} 
variable			conversion0 equal 1.38064852e-23*298/6.74e-10/6.74e-10 
variable			conversion equal ${conversion0}*1000 # mN/m
variable			conversion equal 0.00905690062781216*1000 
variable			number_interfaces equal 2 # só tem uma molécula de asfal, nessa concentração

variable			Nfreq	equal ${thermo_prod}
variable			Nfreq	equal 3000
variable			Nrepeat	equal ${Nfreq}/10  # esse número dividindo deve ser Nevery
variable			Nrepeat	equal 3000/10  
variable			Nevery	equal 10



variable			IFTx equal abs((pxx-(pyy+pzz)/2)*lx)*${conversion}/${number_interfaces}
variable			IFTx equal abs((pxx-(pyy+pzz)/2)*lx)*9.05690062781216/${number_interfaces}
variable			IFTx equal abs((pxx-(pyy+pzz)/2)*lx)*9.05690062781216/2
fix				IFTx_ave all ave/time ${Nevery} ${Nrepeat} ${Nfreq} v_IFTx ave running start 0
fix				IFTx_ave all ave/time 10 ${Nrepeat} ${Nfreq} v_IFTx ave running start 0
fix				IFTx_ave all ave/time 10 300 ${Nfreq} v_IFTx ave running start 0
fix				IFTx_ave all ave/time 10 300 3000 v_IFTx ave running start 0

variable			IFTy equal abs((pyy-(pxx+pzz)/2)*ly)*${conversion}/${number_interfaces}
variable			IFTy equal abs((pyy-(pxx+pzz)/2)*ly)*9.05690062781216/${number_interfaces}
variable			IFTy equal abs((pyy-(pxx+pzz)/2)*ly)*9.05690062781216/2
fix				IFTy_ave all ave/time ${Nevery} ${Nrepeat} ${Nfreq} v_IFTy ave running start 0
fix				IFTy_ave all ave/time 10 ${Nrepeat} ${Nfreq} v_IFTy ave running start 0
fix				IFTy_ave all ave/time 10 300 ${Nfreq} v_IFTy ave running start 0
fix				IFTy_ave all ave/time 10 300 3000 v_IFTy ave running start 0

variable			IFTz equal abs((pzz-(pxx+pyy)/2)*lz)*${conversion}/${number_interfaces}
variable			IFTz equal abs((pzz-(pxx+pyy)/2)*lz)*9.05690062781216/${number_interfaces}
variable			IFTz equal abs((pzz-(pxx+pyy)/2)*lz)*9.05690062781216/2
fix				IFTz_ave all ave/time ${Nevery} ${Nrepeat} ${Nfreq} v_IFTz ave running start 0
fix				IFTz_ave all ave/time 10 ${Nrepeat} ${Nfreq} v_IFTz ave running start 0
fix				IFTz_ave all ave/time 10 300 ${Nfreq} v_IFTz ave running start 0
fix				IFTz_ave all ave/time 10 300 3000 v_IFTz ave running start 0

dump				1 all custom ${dump} all_${concentracao}.lammpstrj id mol type x y z
dump				1 all custom 3000000 all_${concentracao}.lammpstrj id mol type x y z
dump				1 all custom 3000000 all_12.5.lammpstrj id mol type x y z
dump				2 asfalteno custom ${dump} asfal_${concentracao}.lammpstrj id mol type x y z
dump				2 asfalteno custom 3000000 asfal_${concentracao}.lammpstrj id mol type x y z
dump				2 asfalteno custom 3000000 asfal_12.5.lammpstrj id mol type x y z
dump				3 aroma_ring custom ${dump} aroma_ring_${concentracao}.lammpstrj id mol type x y z
dump				3 aroma_ring custom 3000000 aroma_ring_${concentracao}.lammpstrj id mol type x y z
dump				3 aroma_ring custom 3000000 aroma_ring_12.5.lammpstrj id mol type x y z


timestep     			${dt}
timestep     			0.002
thermo	     			${thermo_prod}
thermo	     			3000
thermo_style			custom step temp press pe ke etotal epair emol v_IFTx v_IFTy v_IFTz
run				${total_timesteps}
run				3000000
WARNING: One or more chunks do not contain all atoms in molecule (../compute_chunk_atom.cpp:1164)
Per MPI rank memory allocation (min/avg/max) = 53.22 | 53.74 | 53.91 Mbytes
Step Temp Press PotEng KinEng TotEng E_pair E_mol v_IFTx v_IFTy v_IFTz 
       0     1.001805    24.144491    4.7191416    1.5027037    6.2218453    4.6083531   0.11078847     43.87975    5.3610633    52.837716 
    3000    1.0017028    24.086558    4.7194243    1.5025504    6.2219748    4.6066237    0.1128006     47.37418    12.096629    48.391712 
    6000    1.0011397    24.096063    4.7173795    1.5017058    6.2190853    4.6082083    0.1091712    55.009854    39.755691    20.924783 
    9000    1.0006489    24.153999    4.7186323    1.5009697    6.2196019     4.608153   0.11047928    43.334552    2.1353823    56.514649 
   12000    1.0003219      24.0835    4.7146497    1.5004791    6.2151288    4.6042056   0.11044413    38.167262    17.679356     28.10413 
   15000    1.0021162    24.126771    4.7174193    1.5031705    6.2205898    4.6064905   0.11092878    19.768743    2.8967798    23.143987 
   18000   0.99881125    24.098472    4.7176008    1.4982132    6.2158139    4.6061556   0.11144515    39.251801    18.351195    28.670247 
   21000    1.0018793    24.145381    4.7181752    1.5028152    6.2209904    4.6079268   0.11024836    62.284085    23.224118    53.580214 
   24000    1.0035013     24.12389    4.7159802    1.5052483    6.2212285    4.6055257   0.11045458    33.187233    30.709112    3.3993441 
   27000      1.00304    24.106731    4.7173046    1.5045563    6.2218609    4.6069035   0.11040114    50.600359    21.076289     40.49942 
   30000    1.0006627    24.057417    4.7165497    1.5009903    6.2175399     4.605838   0.11071168     42.75753    35.194556    10.374453 
   33000    1.0022821    24.112887    4.7186127    1.5034194    6.2220321     4.608135   0.11047772      34.7409   0.87868209    48.860892 
   36000    1.0017059    24.142856    4.7160377    1.5025551    6.2185929    4.6079444   0.10809332     42.75028    26.481036    22.317213 
   39000   0.99998358    24.135317    4.7182884    1.4999717      6.21826    4.6088382   0.10945015    40.321838    5.4197761    47.876639 
   42000   0.99989252    24.112424    4.7170813    1.4998351    6.2169163    4.6060815   0.11099981    37.040229    10.390531    36.556521 
   45000    1.0008806    24.088767    4.7190333    1.5013172    6.2203505    4.6087499   0.11028335    52.999703    24.666317    38.866107 
   48000   0.99949894    24.098479    4.7199282    1.4992447    6.2191729    4.6095942   0.11033398    47.258371     43.79817    4.7465038 
   51000    1.0014142    24.064705    4.7172844    1.5021175     6.219402    4.6060193   0.11126511    62.268516    40.118422    30.384224 
   54000   0.99943468    24.150666    4.7164085    1.4991483    6.2155568    4.6071642   0.10924427    50.614929    34.063323    22.704539 
   57000    1.0000704    24.079716    4.7176746    1.5001018    6.2177764    4.6066983   0.11097634    50.169437    8.9008664    56.609848 
   60000   0.99897859    24.082907    4.7207954    1.4984642    6.2192595    4.6074109   0.11338444    42.769839    11.787021    42.500445 
   63000    1.0003575    24.158461    4.7159879    1.5005326    6.2165205    4.6065495   0.10943842    33.334017    15.749431    24.121522 
   66000   0.99995874    24.104827    4.7205876    1.4999344     6.220522    4.6074203   0.11316732     51.43689    25.638361    35.388936 
   69000   0.99919495    24.176449    4.7191071    1.4987887    6.2178958    4.6076319   0.11147518      70.6149    29.435203    56.487937 
   72000    1.0005094    24.220354     4.716491    1.5007604    6.2172514    4.6070128   0.10947816    38.447033    12.199366    36.005038 
   75000   0.99914469    24.025665      4.71662    1.4987133    6.2153333    4.6067514   0.10986857    36.032291    13.284069    31.204701 
   78000    1.0020403    24.130583    4.7194984    1.5030567    6.2225551    4.6091815   0.11031691    36.431869    5.0434158    43.056873 
   81000    1.0027407     24.23505    4.7149331    1.5041073    6.2190404    4.6047146   0.11021851    37.590805    6.8715741    42.138872 
   84000    0.9987813    24.042193    4.7206633    1.4981682    6.2188316     4.609242   0.11142138    47.399527    17.657234    40.798765 
   87000   0.99968277    24.098769    4.7184492    1.4995204    6.2179697    4.6074431   0.11100614    55.381336    28.878883    36.354539 
   90000   0.99968154     24.20006    4.7171892    1.4995186    6.2167078    4.6080058   0.10918339    30.862862    28.452172    3.3068461 
   93000    1.0004951    24.215374    4.7175975     1.500739    6.2183365    4.6074864   0.11011111    51.703942    20.335593    43.029294 
   96000    1.0000707    24.143075    4.7172435    1.5001024    6.2173459    4.6073616   0.10988188    27.714842     22.45997    7.2083309 
   99000   0.99880983     24.09404    4.7183528     1.498211    6.2165638    4.6070618   0.11129097    47.920288    11.224718    50.336869 
  102000    1.0009983    24.038708    4.7161032    1.5014938    6.2175969    4.6062068   0.10989634    34.184398    16.504908    24.251707 
  105000    1.0004372    24.096458    4.7155791    1.5006521    6.2162312    4.6063146   0.10926449    51.172267    15.459867    48.988214 
  108000   0.99982533    24.109421    4.7178208    1.4997343    6.2175551    4.6090365    0.1087843    30.901895    7.9241767    31.519511 
  111000    1.0018846    24.157954    4.7198865    1.5028232    6.2227096    4.6085135   0.11137296    61.131873    43.079612    24.763052 
  114000    1.0015217    24.172381    4.7141902    1.5022789    6.2164691    4.6063735   0.10781673    46.966169    23.487959    32.206056 
  117000    1.0010747    24.181522    4.7187295    1.5016084    6.2203379    4.6092226   0.10950686    32.321771    11.748301    28.221501 
  120000   0.99939755    24.056877    4.7165351    1.4990926    6.2156277    4.6075154    0.1090197    53.036134    5.7970033    64.799919 
  123000   0.99882408    24.117214    4.7175315    1.4982324    6.2157639    4.6081146   0.10941692    62.475772    22.174276    55.283272 
  126000   0.99977524    24.122946    4.7159476    1.4996591    6.2156067    4.6070941   0.10885349    68.923926    49.612759    26.489947 
  129000   0.99842938    24.096691    4.7195265    1.4976404    6.2171669    4.6074081   0.11211842    52.291722    17.498298    47.727615 
  132000   0.99989285    24.123499    4.7185242    1.4998356    6.2183598    4.6086595   0.10986468    52.533256    38.947837    18.635695 
  135000    1.0018587    24.127034    4.7221993    1.5027843    6.2249836    4.6088236   0.11337572    57.815819    15.895008    57.504555 
  138000    1.0033968    24.125659    4.7156985    1.5050914    6.2207899    4.6076339   0.10806463    36.925839     23.41907    18.527809 
  141000    1.0007796    24.100939    4.7160698    1.5011657    6.2172355    4.6069204   0.10914943    49.159797    26.844143    30.611329 
  144000    1.0007591    24.154998    4.7192183    1.5011349    6.2203532    4.6073852   0.11183305    42.787941    29.283512    18.524598 
  147000   0.99945304    24.052442    4.7204591    1.4991758     6.219635    4.6093618   0.11109733    51.025927    30.183589     28.59032 
  150000   0.99947633     24.10748    4.7174184    1.4992108    6.2166292     4.605526   0.11189244    80.280462    34.513428    62.780582 
  153000   0.99981548    24.159644    4.7161887    1.4997195    6.2159082    4.6064272   0.10976156    25.190621    24.857541   0.45689912 
  156000    1.0025709    24.099402    4.7168994    1.5038526     6.220752    4.6061651   0.11073429    45.683309    14.014048    43.442069 
  159000    1.0003351    24.155305    4.7163189     1.500499    6.2168178    4.6078953   0.10842354     43.71818    16.857666    36.845705 
  162000   0.99877605    24.060939    4.7149386    1.4981604     6.213099     4.604892   0.11004666    51.969792    3.5361343    66.438503 
  165000    1.0031178    24.106877    4.7189916    1.5046729    6.2236645    4.6089619   0.11002972    33.166556    16.055454    23.472025 
  168000    1.0013094    24.148296    4.7181115    1.5019603    6.2200718    4.6080644   0.11004712    47.263066    22.554388    33.893942 
  171000    0.9999579    24.109293    4.7195518    1.4999331     6.219485    4.6088226   0.11072928     44.91147     27.18253    24.319538 
  174000    1.0016982    24.143836    4.7171801    1.5025436    6.2197238    4.6064081   0.11077203     44.17341    24.855675    26.498957 
  177000    1.0024187    24.099451    4.7162089    1.5036243    6.2198332    4.6071968   0.10901217    20.685756    32.930714    16.796928 
  180000    0.9998789    24.069685    4.7188979    1.4998146    6.2187126    4.6082335   0.11066439     39.65602    20.054656    26.888022 
  183000    1.0008604    24.083729    4.7179043    1.5012869    6.2191912    4.6084078   0.10949644    63.043361     48.52851    19.910636 
  186000   0.99960864    24.114509    4.7190349    1.4994092    6.2184441    4.6091354   0.10989951    29.898472    13.540335    22.439151 
  189000    1.0023904    24.172028    4.7193211    1.5035819     6.222903    4.6084521   0.11086909    25.059191    11.524996    18.565429 
  192000   0.99928757    24.094201     4.717767    1.4989276    6.2166946    4.6067141   0.11105285    34.396891    31.538284    3.9212726 
  195000    1.0007022    24.121325    4.7190541    1.5010496    6.2201037    4.6080402   0.11101394     39.97662    24.982084    20.568642 
  198000    1.0038905    24.098559    4.7171299    1.5058321     6.222962    4.6075132   0.10961676    35.359109    28.084759    9.9785345 
  201000    1.0015189    24.103752    4.7188804    1.5022747     6.221155     4.607991   0.11088931    33.890335     11.22314    31.093553 
  204000    1.0021922    24.103709    4.7180136    1.5032846    6.2212983    4.6065189   0.11149468    56.538715    21.523804    48.031439 
  207000    1.0018506    24.104653    4.7187279    1.5027722       6.2215    4.6092471   0.10948075     37.68414    19.238868    25.302161 
  210000    1.0026643    24.061436    4.7152648    1.5039928    6.2192576    4.6055096   0.10975526    44.428793     38.51299    8.1149581 
  213000    1.0004308    24.178387    4.7151639    1.5006425    6.2158064    4.6047985   0.11036543    49.744061    16.534194    45.555384 
  216000    1.0019305    24.075501    4.7186231     1.502892    6.2215151    4.6081996   0.11042355    56.731287    17.119675    54.336928 
  219000    1.0029587    24.110619    4.7173504    1.5044343    6.2217847    4.6054827   0.11186765    51.729112    33.082757    25.577996 
  222000    1.0011668    24.146767    4.7183896    1.5017465    6.2201361    4.6081107    0.1102789    42.055769    29.076237    17.804574 
  225000    1.0011562    24.156093    4.7168526    1.5017305    6.2185831    4.6067652   0.11008736     32.89908   0.30426095    45.546432 
  228000    1.0002133    24.129918    4.7176274    1.5003163    6.2179437    4.6076936   0.10993377    46.082751    25.332303    28.464269 
  231000     1.000059    24.114504    4.7151905    1.5000848    6.2152753    4.6059354   0.10925504    49.697768    27.074676    31.033055 
  234000    1.0026698    24.140763    4.7172675    1.5040009    6.2212684    4.6059189   0.11134865    57.435823    46.793234    14.598891 
  237000    1.0004054    24.129886    4.7157221    1.5006043    6.2163264    4.6065293   0.10919277    57.237557    51.287208    8.1623469 
  240000   0.99824776    24.119548     4.721573    1.4973679     6.218941    4.6098588   0.11171423    26.832052    14.902293    16.364555 
  243000    1.0017052    24.166172    4.7168922    1.5025541    6.2194463    4.6085313   0.10836084    44.242682    21.128863    31.706206 
  246000   0.99996312     24.12442    4.7162644     1.499941    6.2162053     4.605657   0.11060737    26.066377    7.5043407    25.462333 
  249000    1.0022448    24.049473    4.7183821    1.5033635    6.2217456    4.6091838   0.10919826    54.845108    23.124141    43.512996 
  252000   0.99837976    24.122521    4.7159705    1.4975659    6.2135364     4.606563   0.10940748    67.239177    19.004065    66.166148 
  255000    1.0016434    24.044079    4.7158853    1.5024614    6.2183467    4.6056959    0.1101894    50.675881    18.134042     44.63902 
  258000   0.99947773    24.128797    4.7152815    1.4992129    6.2144944    4.6069995   0.10828207     57.96746    34.603026    32.049985 
  261000    1.0020653    24.059114    4.7188657    1.5030942    6.2219598    4.6109872   0.10787845    30.600376    13.568288    23.363636 
  264000   0.99909883    24.119238    4.7195234    1.4986445    6.2181679    4.6088422   0.11068115    50.041549    48.623598    1.9450629 
  267000     1.000659    24.091308    4.7158874    1.5009848    6.2168722    4.6063275   0.10955985     55.17891    37.530766    24.208708 
  270000    1.0022051    24.161627    4.7165965    1.5033039    6.2199004     4.607455   0.10914149    25.842144    19.560155    8.6172709 
  273000    0.9971234    24.053947    4.7165345    1.4956814    6.2122159    4.6066019   0.10993259    37.171687    12.047204    34.464319 
  276000    1.0021176    24.100782    4.7178297    1.5031726    6.2210024    4.6072736    0.1105561    39.171068    23.168838    21.950938 
  279000    1.0013355    24.139751    4.7190245    1.5019996     6.221024    4.6063676   0.11265684    42.674645    5.8940097    66.623683 
  282000    1.0001635     24.10341    4.7146632    1.5002415    6.2149047    4.6041074   0.11055583    49.962305    31.433584    25.416632 
  285000    1.0012932    24.169017    4.7179825     1.501936    6.2199185    4.6080747    0.1099078    51.296973    25.486959    35.404691 
  288000    1.0000854    24.103701      4.71564    1.5001244    6.2157643    4.6060489   0.10959111    54.576234    30.776342    32.647321 
  291000    1.0022752    24.127214     4.719461    1.5034091    6.2228701    4.6090645   0.11039656     58.33557    28.219987    41.310822 
  294000   0.99996344    24.185208    4.7158151    1.4999414    6.2157565     4.606171   0.10964406    51.241794    24.682345    36.432723 
  297000    1.0011546    24.096246    4.7155139    1.5017282    6.2172421    4.6062917   0.10922224    18.029106    6.6810257    33.895936 
  300000    1.0013753    24.135274    4.7187966    1.5020593    6.2208558    4.6081705   0.11062606    46.200514    35.179022    15.118648 
  303000    1.0018747    24.127815    4.7174513    1.5028084    6.2202596    4.6072544   0.11019689    48.414898     26.25561    30.396835 
  306000    1.0014753    24.101263    4.7156398    1.5022093    6.2178491    4.6050818   0.11055803    19.634412    7.6812169    16.396704 
  309000    1.0008783      24.0239    4.7190602    1.5013138    6.2203739    4.6083914   0.11066874    31.857978    39.982337    11.144527 
  312000    1.0006966    24.120905    4.7164219    1.5010411    6.2174631    4.6058268   0.11059517    53.460797    25.600113    38.217681 
  315000    1.0003922    24.160398    4.7187938    1.5005845    6.2193783    4.6079429   0.11085098     50.70319    22.007285     39.36339 
  318000    1.0012235     24.14251    4.7192494    1.5018315    6.2210809    4.6068993   0.11235011    36.493341    8.1814383    38.836637 
  321000    1.0013656    24.158117    4.7159819    1.5020446    6.2180265    4.6049711   0.11101081    52.631396    29.731302     31.41303 
  324000    1.0009863    24.157785    4.7169851    1.5014757    6.2184608    4.6060635   0.11092167     63.44858     13.73959     68.18793 
  327000    0.9998309    24.120601     4.719712    1.4997426    6.2194546    4.6107676   0.10894441    57.016663    26.669403    41.628623 
  330000    1.0000607    24.059465    4.7145838    1.5000874    6.2146712    4.6055189   0.10906486    65.516671    31.647083     46.46035 
  333000     1.001137    24.084256    4.7162371    1.5017019     6.217939    4.6048464   0.11139073    58.834664    32.093851    36.681507 
  336000   0.99998548    24.086921    4.7171283    1.4999745    6.2171028    4.6082147   0.10891361    53.510938    22.460571    42.593105 
  339000   0.99961353    24.081974    4.7195251    1.4994166    6.2189417    4.6097504   0.10977469    46.222513    14.478033     43.54525 
  342000   0.99999552    24.092305     4.716021    1.4999896    6.2160106    4.6056563    0.1103647    28.471999    5.7650111    31.148138 
  345000    1.0009403    24.077028    4.7166325    1.5014067    6.2180392     4.606533   0.11009951    54.737609     32.23962    30.861446 
  348000   0.99984269    24.118584    4.7178395    1.4997603    6.2175998    4.6077835   0.11005599    31.679139    2.9631226    39.390978 
  351000    1.0016684    24.039647    4.7198979    1.5024988    6.2223967    4.6085168   0.11138111    57.752675     22.97382    47.707631 
  354000    1.0009226     24.13552    4.7174565    1.5013802    6.2188367     4.607752   0.10970443    38.379261    28.534954    13.503853 
  357000    1.0039666    24.168437    4.7185125    1.5059462    6.2244588    4.6074651   0.11104747    31.801273    8.9280997    31.376102 
  360000    1.0008448    24.121215    4.7173008    1.5012635    6.2185643    4.6071857   0.11011518    48.357461     13.77956    47.431974 
  363000    1.0010246     24.17424    4.7174097    1.5015331    6.2189428    4.6070807   0.11032908    46.732028    32.589106    19.400445 
  366000    1.0001101    24.091928    4.7194214    1.5001614    6.2195828    4.6089369   0.11048447    29.411114    28.384065    1.4088475 
  369000    1.0028732    24.174291    4.7143069    1.5043061     6.218613    4.6052465   0.10906044    47.927672    22.726009     34.57019 
  372000   0.99972944    24.126038    4.7198676    1.4995904     6.219458    4.6082856   0.11158198    32.214728    17.977015    19.530474 
  375000   0.99961122    24.152931    4.7170717    1.4994131    6.2164848    4.6073943    0.1096774     54.94511    36.593315    25.173935 
  378000   0.99986421     24.07301    4.7174076    1.4997926    6.2172002     4.607771   0.10963657    47.343963    10.879537      50.0198 
  381000    1.0021377    24.155146    4.7163269    1.5032028    6.2195297    4.6053733   0.11095355    47.644259    21.721878    35.558829 
  384000    1.0029721    24.090548    4.7191797    1.5044544    6.2236342     4.608613   0.11056671    56.465303    29.113999    37.518944 
  387000   0.99908603    24.081213    4.7172333    1.4986253    6.2158586    4.6061762   0.11105713    32.019148      22.6619    12.835735 
  390000   0.99990277     24.05282     4.719043    1.4998504    6.2188934    4.6084844    0.1105586    59.019987    32.993864    35.701136 
  393000   0.99829309    24.097407    4.7169921    1.4974359     6.214428    4.6063445   0.11064753    36.409334    16.115226     27.83829 
  396000    1.0017482    24.163539    4.7201477    1.5026185    6.2227662    4.6101749   0.10997282    56.002567    36.018338    27.413214 
  399000    1.0009876    24.109952    4.7146659    1.5014777    6.2161436    4.6051902   0.10947576     54.99333    20.217646     47.70328 
  402000   0.99964036    24.059076    4.7162052    1.4994568    6.2156621    4.6058698   0.11033545    46.810804    37.360849    12.962903 
  405000   0.99875989    24.182844    4.7185781    1.4981361    6.2167143    4.6077409   0.11083725    26.906167    29.537178    3.6090688 
  408000    1.0013835     24.14227      4.71505    1.5020715    6.2171215    4.6059307   0.10911928    18.297222      6.81393    34.446032 
  411000   0.99971331    24.142028    4.7215329    1.4995662    6.2210992    4.6073476   0.11418532    48.500943    30.793624     24.28988 
  414000   0.99986007    24.092239    4.7171418    1.4997864    6.2169282    4.6064215   0.11072029    40.715649    27.207164    18.530161 
  417000   0.99971778    24.064344    4.7141127    1.4995729    6.2136856    4.6045292   0.10958349    43.759586    15.898113    38.218764 
  420000     1.002056    24.140991    4.7166791    1.5030802    6.2197593    4.6079637   0.10871541    65.495117    42.244045    31.894482 
  423000    1.0017115    24.175396    4.7174421    1.5025635    6.2200056    4.6060316   0.11141057    47.932597    19.964714    38.364731 
  426000   0.99723394    24.071763    4.7182261    1.4958472    6.2140733    4.6087103   0.10951588    56.915534    29.863167     37.10888 
  429000    1.0001912    24.067733    4.7125658     1.500283    6.2128488    4.6040058      0.10856    59.555906     39.03006    28.156174 
  432000    1.0003926    24.121894    4.7184607    1.5005851    6.2190458     4.607761   0.11069967    49.434851     36.56799     17.65002 
  435000    1.0020536    24.075927    4.7175452    1.5030767     6.220622    4.6073035    0.1102417    33.602893    14.955251    25.579761 
  438000    1.0023963    24.079522    4.7169521    1.5035907    6.2205427    4.6061712   0.11078093    48.647752    8.6188578    54.909331 
  441000    1.0017071    24.146265     4.716036    1.5025569    6.2185929    4.6066183   0.10941762    29.216876   0.21268544    40.369777 
  444000    1.0012888    24.093089    4.7160364    1.5019295    6.2179659    4.6059253   0.11011106    50.032799    30.193336    27.214632 
  447000    1.0019803    24.105891    4.7170227    1.5029667    6.2199894    4.6056329   0.11138975     46.85623    25.134333    29.796847 
  450000    1.0008304    24.130756     4.719682    1.5012419    6.2209239    4.6088445   0.11083748    48.770223    17.449255      42.9643 
  453000    1.0018461    24.106054    4.7159165    1.5027654    6.2186819    4.6067696   0.10914695    34.879327    20.557643    19.645661 
  456000   0.99916786    24.063459    4.7163575    1.4987481    6.2151056     4.606536   0.10982151    50.200531    26.714133    32.217288 
  459000    1.0001135    24.148443    4.7181202    1.5001666    6.2182868    4.6074455   0.11067473    39.393179    39.942805   0.75394419 
  462000   0.99999646    24.144157    4.7174596     1.499991    6.2174506    4.6089892   0.10847044     20.85096    20.599374    56.859182 
  465000    1.0032649    24.110047    4.7176219    1.5048936    6.2225155    4.6064858   0.11113608    62.459102    45.618398    23.101108 
  468000   0.99988916    24.182557    4.7172655      1.49983    6.2170956    4.6063776   0.11088795    39.752255    24.850559    20.441288 
  471000   0.99819297    24.090116    4.7164848    1.4972857    6.2137706    4.6072972    0.1091876    44.918359    27.543272    23.834144 
  474000    1.0015685    24.077184    4.7194005     1.502349    6.2217495    4.6073064    0.1120941    28.864677    15.355415    18.531227 
  477000    1.0015781     24.10358     4.718886    1.5023634    6.2212494    4.6081831   0.11070282    50.238476    23.820722    36.238353 
  480000    1.0013289    24.050268    4.7165969    1.5019897    6.2185866    4.6056408   0.11095608    51.091725    22.615288    39.062337 
  483000    1.0018196    24.096085    4.7182492    1.5027257     6.220975    4.6080808   0.11016839    32.437199    19.937855     17.14588 
  486000     1.002915    24.203707    4.7168861    1.5043687    6.2212548    4.6069775   0.10990866    60.030028    23.875386    49.594856 
  489000   0.99982024    24.091397    4.7160163    1.4997266    6.2157429    4.6059675   0.11004878    33.566114    23.033527    14.447996 
  492000   0.99986865     24.14128    4.7199014    1.4997993    6.2197006    4.6081823   0.11171908    48.797239    20.496209    38.821724 
  495000    1.0001373    24.092799    4.7189734    1.5002022    6.2191757    4.6083104   0.11066308    43.617709    45.731251    2.8992354 
  498000    1.0013212    24.178907    4.7193738     1.501978    6.2213518    4.6086766   0.11069723    19.907179    15.386795    6.2008026 
  501000   0.99937099    24.107338    4.7185902    1.4990528     6.217643     4.608104   0.11048616    47.165004    24.022437    31.745641 
  504000    1.0008296    24.128955    4.7169385    1.5012406    6.2181792    4.6056626   0.11127596    25.155582     22.25408    3.9801127 
  507000   0.99722294    24.071968    4.7151433    1.4958307     6.210974    4.6068673   0.10827603    43.680889    22.666621    28.826163 
  510000    1.0001217    24.101831    4.7155357    1.5001789    6.2157146    4.6071007   0.10843506    17.479884    4.5894966    30.273505 
  513000    1.0013087    24.097181    4.7172582    1.5019594    6.2192175    4.6063269   0.11093128    60.507329    30.141941     41.65349 
  516000    1.0010512    24.133216    4.7182661    1.5015731    6.2198391    4.6070656   0.11120044     56.87177    28.598132    38.784148 
  519000   0.99869354    24.158151    4.7173722    1.4980366    6.2154088    4.6068649   0.11050722    57.935278    31.921737    35.683877 
  522000    1.0000827    24.059788    4.7169052    1.5001203    6.2170255    4.6078559   0.10904927    64.852831    47.064231    24.401377 
  525000    1.0023766    24.172201    4.7206901    1.5035611    6.2242512    4.6089331     0.111757     11.07753    24.995515    19.091891 
  528000    1.0023249    24.146339    4.7206505    1.5034836    6.2241342    4.6086633   0.11198721    51.805296     41.10552    14.677336 
  531000   0.99972259    24.069093    4.7187269    1.4995802    6.2183071    4.6085565   0.11017041    56.233358    32.337357    32.779158 
  534000    1.0005803    24.094014     4.715059    1.5008667    6.2159257    4.6049881   0.11007091    43.658727     8.404055    48.360329 
  537000     1.001337    24.208472     4.717784    1.5020017    6.2197857    4.6078146   0.10996946    46.020713    27.607058    25.258792 
  540000    1.0008478    24.096073    4.7180428    1.5012679    6.2193107    4.6065646   0.11147813    46.010664    10.661235    48.490311 
  543000    1.0023795    24.159157    4.7182001    1.5035656    6.2217657    4.6078256   0.11037446    48.479297    18.904336    40.569228 
  546000     1.000059    24.084723    4.7196071    1.5000848    6.2196919    4.6074806   0.11212656    75.565521    36.420847    53.696409 
  549000    1.0001938    24.071294    4.7206859     1.500287    6.2209729    4.6074422   0.11324369    36.110968    32.396362    5.0954821 
  552000   0.99966784    24.117381    4.7168179     1.499498     6.216316    4.6074537   0.10936421    61.747133    29.805303    43.815964 
  555000   0.99972723    24.152203    4.7208242    1.4995871    6.2204114     4.610003   0.11082126    39.642115    22.872728    23.003279 
  558000   0.99907684    24.139764    4.7178587    1.4986116    6.2164702     4.607116   0.11074271    43.690777    24.057868    26.931293 
  561000    1.0010192    24.156676    4.7205038    1.5015251    6.2220289    4.6086573   0.11184648    50.538894    22.317801     38.71207 
  564000    1.0038658     24.09631    4.7164634    1.5057949    6.2222584    4.6066656   0.10979786    36.260746    10.857273    34.847021 
  567000   0.99931272    24.103036    4.7158898    1.4989654    6.2148552    4.6063789   0.10951089    50.208252    31.979401    25.005288 
  570000   0.99899474    24.120765    4.7191972    1.4984884    6.2176856    4.6062876   0.11290954    57.656742    11.526877    63.278292 
  573000     1.001272    24.152016     4.717597    1.5019043    6.2195013    4.6059951   0.11160185    28.867074     27.79286    1.4735441 
  576000    1.0002166    24.100776    4.7173697    1.5003212    6.2176909    4.6079616    0.1094081    47.650024    14.879792    44.952317 
  579000    1.0013208    24.064538    4.7199683    1.5019775    6.2219459    4.6082104   0.11175797    44.218074    35.960403    11.327396 
  582000     1.002164    24.117499    4.7186084    1.5032422    6.2218506    4.6072342   0.11137421    50.969258      41.4007    13.125597 
  585000    1.0026352    24.143848    4.7165785     1.503949    6.2205276    4.6060782   0.11050036    45.573356    21.673217    32.784834 
  588000    1.0005222    23.988781    4.7164088    1.5007796    6.2171884    4.6060973   0.11031152    49.024677    34.537972    19.872028 
  591000    1.0015299    24.148248    4.7194199    1.5022911     6.221711    4.6085567   0.11086319    32.160653    21.429059    14.720983 
  594000    1.0028476    24.135438    4.7161836    1.5042676    6.2204513    4.6057957   0.11038789    43.824268    31.978941    16.248737 
  597000    1.0003304    24.074679    4.7168435    1.5004918    6.2173353    4.6070311   0.10981244    52.580943    22.316661    41.514798 
  600000    1.0007037    24.104392    4.7172386    1.5010519    6.2182905    4.6064084   0.11083021    38.881673    2.1708058    50.357853 
  603000    1.0001095    24.078836    4.7181102    1.5001605    6.2182708    4.6068965   0.11121372    47.911073    9.6754881    52.449373 
  606000   0.99956382    24.079407    4.7182902     1.499342    6.2176322    4.6072977   0.11099254    44.507866      19.6017    34.164844 
  609000     1.002599    24.171028    4.7189606    1.5038948    6.2228554    4.6073024   0.11165824    44.577891    33.043429     15.82231 
  612000    1.0003841    24.101928    4.7172723    1.5005724    6.2178447    4.6082179   0.10905443    35.200376     30.13258    6.9517105 
  615000   0.99896953    24.121704    4.7149341    1.4984506    6.2133847    4.6056596   0.10927455    46.776028    24.563839    30.469402 
  618000    1.0017033    24.100893    4.7176407    1.5025513     6.220192    4.6071834    0.1104573    34.265661      11.1289    31.737676 
  621000     0.998096    24.137053    4.7173108    1.4971403     6.214451    4.6078475   0.10946326    65.176309    47.091229    24.808071 
  624000    1.0010779    24.089692    4.7183407    1.5016131    6.2199538    4.6081857   0.11015497    39.199728    8.6723986    41.875633 
  627000    1.0030551    24.170974    4.7163957     1.504579    6.2209747    4.6058526   0.11054306    46.679239    27.076683    26.889657 
  630000   0.99949544    24.165811    4.7172308    1.4992394    6.2164702    4.6086073   0.10862352    44.435457    15.632677    39.509995 
  633000   0.99929354    24.031673    4.7174925    1.4989366    6.2164291    4.6088526   0.10863991    50.422983    26.001078    33.500563 
  636000    1.0007167    24.098574    4.7194416    1.5010713    6.2205129     4.608335   0.11110654    41.478422    22.645308    25.834181 
  639000   0.99922023    24.121539    4.7174031    1.4988266    6.2162297    4.6062339   0.11116923    69.714328    38.302501    43.088935 
  642000    1.0023638    24.107353    4.7150329     1.503542    6.2185749    4.6056152   0.10941772    10.791399    17.410076    9.0791198 
  645000    1.0018242    24.074602    4.7159926    1.5027326    6.2187252    4.6062992    0.1096933    30.888058    6.7868958    33.060587 
  648000    1.0014885    24.171153    4.7179914     1.502229    6.2202204    4.6072466    0.1107448    42.465884    23.156654     26.48729 
  651000    1.0019321    24.058639    4.7149794    1.5028944    6.2178738     4.605638   0.10934139    42.117594    8.5199391    46.087328 
  654000    1.0005927    24.151498    4.7167097    1.5008854    6.2175951    4.6074512   0.10925855    39.233943     25.61802     18.67754 
  657000    1.0006825    24.123275    4.7194443    1.5010201    6.2204644    4.6093683   0.11007603    36.834559    11.287722    35.043679 
  660000    1.0031215    24.184732    4.7168348    1.5046786    6.2215134    4.6069808   0.10985403    31.295668    6.8200606    33.574228 
  663000    1.0007592     24.09612    4.7179167    1.5011352    6.2190519    4.6080063   0.10991044    27.201429    3.8901836    31.977024 
  666000    1.0014927    24.106283     4.719288    1.5022354    6.2215234    4.6088325   0.11045554     52.64953    28.889367    32.592823 
  669000    1.0016795    24.123816    4.7168114    1.5025155    6.2193269    4.6081922   0.10861922    48.038526    20.609132    37.626063 
  672000    1.0008035     24.07058    4.7144626    1.5012015    6.2156641    4.6053636   0.10909896    65.531091    25.292177    55.197425 
  675000    1.0022131    24.103385    4.7180652    1.5033159    6.2213811    4.6077024   0.11036283    59.224483    29.408207     40.90025 
  678000    1.0019107    24.058316    4.7157368    1.5028623    6.2185991    4.6081885   0.10754822    39.040662    1.8779661    50.977646 
  681000   0.99945226     24.03311     4.717235    1.4991747    6.2164097    4.6075916   0.10964343    59.316436    42.583951    22.952658 
  684000     1.000965    24.177135    4.7197477    1.5014437    6.2211914    4.6087712   0.11097654    53.581247    18.541836    48.065045 
  687000   0.99796799    24.159459    4.7211123    1.4969483    6.2180606    4.6084582   0.11265407    52.536048    16.405437    49.561892 
  690000    1.0001307    24.093302    4.7174583    1.5001923    6.2176506    4.6065626   0.11089572    50.263216    27.759293    30.869586 
  693000    0.9997974    24.090741    4.7178108    1.4996924    6.2175031    4.6071995    0.1106113    47.220593    31.351916    21.767738 
  696000   0.99894419    24.059105    4.7167659    1.4984126    6.2151785    4.6063021    0.1104638    53.649648    11.420404    57.927645 
  699000    1.0011756    24.135787    4.7197528    1.5017597    6.2215125     4.608088   0.11166472    44.179489    15.828852     38.88977 
  702000   0.99870876    24.096449    4.7202141    1.4980594    6.2182735    4.6087432    0.1114709    50.530944    21.412618    39.942842 
  705000    1.0007802    24.137861    4.7160977    1.5011666    6.2172643    4.6074468   0.10865093    52.376379    47.233638    7.0545165 
  708000    1.0026726    24.102983    4.7169337    1.5040052     6.220939    4.6059984   0.11093537     48.12606    28.985842    26.255449 
  711000   0.99955601    24.139178    4.7166449    1.4993303    6.2159752    4.6072523   0.10939257    52.558827    34.500143    24.771863 
  714000    1.0010691    24.162419    4.7149381       1.5016    6.2165381    4.6047662   0.11017197    38.246485   0.83811854    51.314643 
  717000    1.0011695    24.154459    4.7169151    1.5017505    6.2186656    4.6072933   0.10962177    26.618147    10.630298     21.93121 
  720000    1.0008686    24.095174    4.7179156    1.5012991    6.2192147    4.6071006   0.11081502    46.968194     5.902254    56.331892 
  723000    1.0020494    24.111683    4.7154091    1.5030704    6.2184795    4.6053363   0.11007277    33.963342    13.246151     28.41865 
  726000    1.0004778    24.121088     4.719804    1.5007129     6.220517    4.6087747   0.11102935    51.268189    23.208545    38.490604 
  729000    1.0045111     24.14406    4.7197255    1.5067629    6.2264884    4.6086892    0.1110363    45.283227    36.706903    11.764507 
  732000    1.0003352    24.128913    4.7170433    1.5004991    6.2175424    4.6071818   0.10986156    41.602099    12.697233     39.65003 
  735000    1.0000266    24.139954    4.7176311    1.5000361    6.2176672    4.6073014    0.1103297    57.610823    21.910516    48.971626 
  738000    1.0002307    24.096035    4.7188916    1.5003424     6.219234    4.6077621   0.11112951    51.603279    33.738408    24.506002 
  741000   0.99758546    24.018567    4.7178387    1.4963745    6.2142132    4.6084373   0.10940141    32.172438      13.6633    25.389769 
  744000    1.0007192    24.176617    4.7174805    1.5010751    6.2185556    4.6083631   0.10911733    44.625919     38.65317    8.1930733 
  747000    1.0023483    24.094247    4.7171249    1.5035188    6.2206437     4.607107   0.11001789    49.466568    15.483905     46.61546 
  750000    1.0004374    24.183125    4.7164299    1.5006523    6.2170822    4.6068747   0.10955525    36.055943    15.416458    28.312057 
  753000    0.9980358    24.067861    4.7177516      1.49705    6.2148016    4.6076974    0.1100542    41.214671     16.24421    34.253041 
  756000     1.001153    24.159081    4.7181347    1.5017257    6.2198604    4.6075409   0.11059379    49.335517    11.573725    51.799451 
  759000    1.0003833     24.17364    4.7131965    1.5005713    6.2137678    4.6040408   0.10915572    51.603639    36.317909    20.968085 
  762000    1.0011192     24.08098    4.7190655     1.501675    6.2207405    4.6081552   0.11091033    67.045086    29.270136    51.817501 
  765000    1.0000179    24.092343    4.7170612    1.5000231    6.2170843     4.606962   0.11009922     61.12584    37.944064    31.799425 
  768000   0.99973289    24.004206    4.7168097    1.4995956    6.2164053    4.6065894   0.11022027    46.658881    22.340558    33.358475 
  771000    1.0001659     24.18282    4.7164985    1.5002452    6.2167437    4.6055469   0.11095163    46.743241    16.598844    41.350347 
  774000    1.0000165    24.157342    4.7160411    1.5000211    6.2160622    4.6058574   0.11018366    48.910997    30.013107    25.923037 
  777000     1.000611     24.07542    4.7189806    1.5009128    6.2198935    4.6080051   0.11097555    43.417625    17.605932    35.406994 
  780000   0.99743073    24.157957    4.7186211    1.4961424    6.2147635    4.6080455   0.11057559    36.979543    15.053982    30.076222 
  783000     1.003424      24.1436    4.7172749    1.5051323    6.2224072    4.6065945   0.11068037    54.896452    27.822714    37.138196 
  786000   0.99742686    24.080212    4.7181085    1.4961366    6.2142451    4.6084314   0.10967713    43.000259    10.658016    44.365227 
  789000    1.0002569    24.114412    4.7174934    1.5003816     6.217875    4.6070689   0.11042452    49.607088    24.811168    34.013615 
  792000    1.0040195     24.08012    4.7161738    1.5060255    6.2221993    4.6059034   0.11027048    43.696644    24.610694    26.181007 
  795000    1.0035203    24.100689    4.7158031    1.5052767    6.2210798    4.6050684   0.11073472    38.308413    29.918774    11.508423 
  798000   0.99826249    24.081822    4.7191905      1.49739    6.2165806     4.608532   0.11065858    41.079576    23.569513    24.019295 
  801000    1.0021611    24.164971    4.7177362    1.5032379    6.2209742    4.6084066   0.10932967    50.961788    12.161501       53.224 
  804000    1.0012854    24.176677     4.717202    1.5019244    6.2191264    4.6061208    0.1110812     38.61528    30.698388    10.859937 
  807000    1.0010814     24.09906    4.7158648    1.5016184    6.2174832    4.6057844   0.11008038    33.757286    27.276471     8.890008 
  810000    0.9996849    24.038169    4.7202065    1.4995236    6.2197302    4.6077514   0.11245514    57.604049    29.326823     38.78907 
  813000    1.0019038    24.066482    4.7159512     1.502852    6.2188032    4.6079753   0.10797594    46.488739    27.274321    26.357233 
  816000    1.0003615    24.117438    4.7160366    1.5005386    6.2165752    4.6063832   0.10965341    67.722264     38.54051     40.02985 
  819000    1.0010498    24.124136    4.7155042     1.501571    6.2170751    4.6055707   0.10993343    48.347394    28.769935    26.855232 
  822000    1.0005085    24.067297    4.7201494     1.500759    6.2209084    4.6085249   0.11162448    51.788643    23.006327    39.481923 
  825000   0.99997316    24.071567    4.7173397     1.499956    6.2172957    4.6063743   0.11096542    48.233491    13.810573    47.219377 
  828000   0.99972126    24.127827    4.7190921    1.4995782    6.2186703    4.6076703   0.11142182    19.411927    9.0736201    14.181493 
  831000    1.0030332    24.183403    4.7171041    1.5045461    6.2216502    4.6076291   0.10947497      38.4752    13.541448    34.202685 
  834000    1.0014115    24.156847     4.718981    1.5021136    6.2210945    4.6065803   0.11240072    46.656681    34.572561      16.5763 
  837000    0.9994888    24.123168    4.7160923    1.4992295    6.2153218    4.6057555    0.1103368    42.200194    30.618585    15.886984 
  840000    1.0018004    24.174332    4.7184816    1.5026968    6.2211785    4.6073998   0.11108187    51.865627    22.026124    40.932112 
  843000   0.99983634    24.140301    4.7182053    1.4997508    6.2179561    4.6071667   0.11103864    54.457308    14.345016    55.023732 
  846000    1.0024334    24.141019    4.7206025    1.5036464    6.2242489    4.6086986   0.11190387    44.456461     44.72823   0.37279631 
  849000    1.0006547    24.121919    4.7160312    1.5009783    6.2170095    4.6049805   0.11105071    70.101424    45.807832     33.32455 
  852000    1.0012446     24.12184    4.7176132    1.5018631    6.2194763    4.6062759   0.11133734    36.347662    30.069711    8.6117319 
  855000    1.0020225    24.168445    4.7178416      1.50303    6.2208715    4.6077266   0.11011501    39.225489     29.92979    12.751305 
  858000    1.0001804    24.102052    4.7158628    1.5002669    6.2161297    4.6065914   0.10927146    52.712138    36.081283    22.813249 
  861000    1.0008218     24.17163    4.7162633     1.501229    6.2174923    4.6071048   0.10915851    54.857862    36.649829    24.976731 
  864000    1.0018385    24.095513     4.716337    1.5027541    6.2190911    4.6062503   0.11008666    53.063174    13.645109    54.071432 
  867000    1.0020245    24.154354    4.7190012    1.5030331    6.2220343    4.6064251   0.11257611     50.21118    26.970487    31.880245 
  870000    1.0019382    24.111317    4.7174303    1.5029035    6.2203338    4.6063962   0.11103405    46.079849    33.495607    17.262338 
  873000   0.99870354    24.055679    4.7183481    1.4980516    6.2163997    4.6069966   0.11135142     49.95766    24.242851    35.274095 
  876000    1.0003061    24.077143    4.7159796    1.5004555    6.2164351    4.6062066   0.10977298    25.271431    14.215179     15.16633 
  879000   0.99850217    24.103519    4.7188727    1.4977495    6.2166222    4.6077608   0.11111189    36.605008    4.2344178    44.404111 
  882000    1.0007266    24.125223     4.719374    1.5010861    6.2204601    4.6073012   0.11207277    40.653468    20.362404    27.834113 
  885000    1.0028872     24.14089    4.7166197    1.5043271    6.2209468    4.6057731   0.11084656    37.789914    17.085308    28.401387 
  888000    1.0016577    24.156675    4.7171631    1.5024828    6.2196459    4.6072385   0.10992465    45.877112    17.823653    38.482119 
  891000    1.0026065    24.069883    4.7192284     1.503906    6.2231344    4.6067366   0.11249179    54.978531    19.497393    48.670982 
  894000   0.99942807    24.178396    4.7160176    1.4991384     6.215156    4.6066613   0.10935638    49.431112    12.449291    50.729533 
  897000    1.0033456    24.131485    4.7194715    1.5050147    6.2244863    4.6077038   0.11176771    48.392834     21.23688    37.250974 
  900000    1.0017139    24.118188     4.714987    1.5025672    6.2175542    4.6062307   0.10875635    24.078532    6.5852334      23.9963 
  903000   0.99991261    24.104118    4.7197397    1.4998652    6.2196048    4.6098105    0.1099292    66.911356    31.235496     48.93809 
  906000    1.0010094     24.13893     4.716212    1.5015104    6.2177224    4.6062702   0.10994185    27.222682    11.032376    22.208929 
  909000    1.0004611    24.125514    4.7180155     1.500688    6.2187035    4.6076063   0.11040926    43.429137    32.499846    14.992172 
  912000    1.0018878    24.105196    4.7169806     1.502828    6.2198086    4.6075753   0.10940537     47.35515    21.769398    35.097062 
  915000    1.0019477    24.065778    4.7189753    1.5029179    6.2218932    4.6076058   0.11136948    39.667076    15.802797    32.735644 
  918000      1.00083    24.130382    4.7162888    1.5012413    6.2175301    4.6054614   0.11082743    44.682903    18.750935    35.571981 
  921000   0.99989778    24.132986    4.7178136     1.499843    6.2176566    4.6082642    0.1095494    42.163604    27.940543    19.510376 
  924000   0.99778894    24.130272    4.7189337    1.4966797    6.2156134    4.6074896   0.11144404    50.184638    26.412677    32.609008 
  927000    1.0034391    24.136954    4.7151123    1.5051549    6.2202672    4.6067366   0.10837568    53.497213     22.70593     42.23771 
  930000    1.0007699    24.210221    4.7192748    1.5011512    6.2204259    4.6079556   0.11131921    50.609781    36.203518    19.761681 
  933000   0.99983872    24.074374    4.7145385    1.4997544    6.2142928     4.605378   0.10916042    42.294268    0.3304922    57.563492 
  936000   0.99871476    24.175822     4.721886    1.4980684    6.2199544    4.6101621   0.11172391    48.637262    31.738934    23.180154 
  939000   0.99988177    24.089225    4.7175504    1.4998189    6.2173693     4.606304   0.11124641    55.322239    35.890242    26.655694 
  942000   0.99845208    24.058801    4.7160377    1.4976744    6.2137121    4.6065132   0.10952448    44.041088    28.803576    20.901942 
  945000    1.0019034    24.098968    4.7157215    1.5028514    6.2185729    4.6060562   0.10966532    44.784547    17.864611    36.927218 
  948000   0.99877385    24.101238    4.7170903    1.4981571    6.2152474    4.6076064   0.10948393    52.033758    30.892171    29.000812 
  951000   0.99889384    24.051327    4.7173481     1.498337    6.2156852      4.60677   0.11057811    46.260029     27.45354    25.797658 
  954000    1.0003667    24.198861    4.7159796    1.5005464    6.2165259    4.6068174   0.10916219    39.080126    1.5476496    51.484889 
  957000      1.00156    24.178588    4.7172987    1.5023362     6.219635    4.6065927   0.11070601    58.112521    16.729612    56.766692 
  960000    1.0034278     24.16296    4.7143001     1.505138    6.2194381    4.6055051   0.10879498    44.317597    9.2319602    48.128456 
  963000   0.99991079    24.045647    4.7139234    1.4998625    6.2137859    4.6049567   0.10896675    42.254607    37.606199    6.3764173 
  966000    1.0010927    24.158362    4.7178491    1.5016353    6.2194844    4.6077124   0.11013667    48.426152    24.009693    33.493093 
  969000    1.0012929    24.201827    4.7184117    1.5019356    6.2203473    4.6074347   0.11097702    28.167114    13.391423    20.268442 
  972000    1.0015877    24.141847    4.7152447    1.5023778    6.2176225    4.6054893   0.10975543    46.400155    22.662568    32.561854 
  975000   0.99940069    24.116947    4.7191104    1.4990973    6.2182077    4.6078519   0.11125847    57.619792     43.67037    19.135015 
  978000    1.0032084    24.110699    4.7182216    1.5048089    6.2230305     4.607637   0.11058455    47.931898    21.909559    35.695945 
  981000    1.0023069    24.040184    4.7183994    1.5034567    6.2218561    4.6083247   0.11007468    35.134449    17.863032    23.691936 
  984000    1.0010726    24.144185    4.7226322    1.5016052    6.2242374    4.6095514   0.11308078    53.045584    19.346384    46.226621 
  987000    1.0014855    24.128225    4.7175203    1.5022245    6.2197448    4.6070635   0.11045682    41.304438    13.429035    38.237872 
  990000    1.0009639    24.178262    4.7184014    1.5014421    6.2198435    4.6088473   0.10955409    31.447902    7.8761095    32.334427 
  993000   0.99946553    24.094389    4.7131771    1.4991946    6.2123716    4.6039031   0.10927396    46.073442    5.1818176    56.092775 
  996000    1.0037041    24.100475    4.7150884    1.5055524    6.2206408    4.6048452    0.1102432    52.438667    1.0496689    73.372219 
  999000    1.0003985    24.056125    4.7167426     1.500594    6.2173366    4.6061311   0.11061147    69.484915    41.928473    37.800341 
 1002000    1.0034233    24.107832    4.7178695    1.5051312    6.2230006    4.6085181   0.10935136    45.171891    16.896495    38.786561 
 1005000    1.0012699    24.131236    4.7152645    1.5019012    6.2171656    4.6041962   0.11106832    40.053333    19.998627     27.50989 
 1008000   0.99931267    24.115862     4.718701    1.4989653    6.2176663    4.6074576   0.11124339     43.76274    25.853758    24.566511 
 1011000     1.000504    24.070769    4.7196155    1.5007523    6.2203678    4.6067416   0.11287386    34.706148    30.448084    5.8409666 
 1014000   0.99942117    24.107189    4.7180454     1.499128    6.2171734    4.6073855   0.11065991    33.367215    6.2720314    37.167613 
 1017000    1.0012597    24.162914    4.7158977    1.5018858    6.2177835    4.6063615   0.10953622    22.874881    30.232071    10.092169 
 1020000    1.0029688    24.093878    4.7182496    1.5044495    6.2226991    4.6079364   0.11031323    54.402359    10.657845    60.006205 
 1023000    1.0013987    24.200699    4.7188032    1.5020944    6.2208976    4.6102323   0.10857094    59.063646    28.604864    41.781603 
 1026000    1.0020268    24.148568    4.7177625    1.5030365     6.220799    4.6053911   0.11237135    39.041159    6.2404261    44.994157 
 1029000    1.0036008    24.115933    4.7190497    1.5053974    6.2244471    4.6087561   0.11029358    28.000318    3.0733405    34.193392 
 1032000     1.001354    24.018855    4.7187104    1.5020273    6.2207378     4.608936   0.10977439    45.291871    14.350566    42.443501 
 1035000     1.003435    24.059519    4.7171437    1.5051488    6.2222925     4.605142   0.11200168    41.605418    5.5951863    64.747071 
 1038000     1.001632    24.128039    4.7178828    1.5024443    6.2203271    4.6065677    0.1113151    32.891207    16.911468    21.920086 
 1041000   0.99693153    24.197627    4.7206359    1.4953936    6.2160295    4.6087914   0.11184451    50.389515     26.09157    33.330521 
 1044000    1.0009073    24.134222    4.7197027    1.5013572      6.22106    4.6071512   0.11255155     46.84841    2.9285808     68.28121 
 1047000    1.0015719    24.054005     4.716748    1.5023541     6.219102    4.6073795   0.10936851    34.356836    12.554183    29.907623 
 1050000    1.0016556      24.1363    4.7182691    1.5024797    6.2207487    4.6068919    0.1113772    46.932926    30.382056    22.703531 
 1053000    1.0008084    24.032579    4.7193237    1.5012089    6.2205326    4.6085471   0.11077665    33.026625    32.138836    1.2178178 
 1056000   0.99899544    24.051517    4.7178522    1.4984895    6.2163417    4.6061792   0.11167303    38.238867    13.898436    33.388802 
 1059000    1.0016147    24.063036    4.7193744    1.5024183    6.2217927    4.6087528   0.11062158    56.334948    30.703964    35.159107 
 1062000    1.0004868    24.140709    4.7189284    1.5007265     6.219655    4.6081122   0.11081621    53.749011    10.537078    59.275642 
 1065000   0.99983876    24.111781    4.7158957    1.4997544    6.2156501    4.6050184   0.11087723    46.608541    10.850151    49.051301 
 1068000    1.0006355    24.066097    4.7159697    1.5009496    6.2169193    4.6067044   0.10926528    31.137426    11.536036    26.888059 
 1071000    1.0014388    24.104838    4.7182595    1.5021544    6.2204139    4.6078833    0.1103762    46.686937    23.389243    31.958435 
 1074000    1.0007528    24.102223    4.7170402    1.5011255    6.2181657    4.6073502   0.10969003    63.360347    29.923713    45.866448 
 1077000    1.0016703    24.159526    4.7161506    1.5025017    6.2186524    4.6056984   0.11045227    54.122614    27.971969    35.871949 
 1080000    1.0031242     24.11566    4.7183131    1.5046826    6.2229957    4.6071279   0.11118513     69.62709    46.172683    32.173405 
 1083000    1.0002901    24.087927    4.7141436    1.5004315    6.2145751    4.6063833    0.1077603    39.593393    29.402804    13.978864 
 1086000    1.0016163    24.094762     4.717807    1.5024207    6.2202277    4.6080026   0.10980444    57.445698    42.456711    20.561028 
 1089000    1.0003984     24.05828    4.7169057    1.5005939    6.2174996    4.6067039   0.11020184    33.007665    11.606906    29.356329 
 1092000   0.99827693    24.141418     4.716363    1.4974117    6.2137747    4.6052829   0.11108012    41.369109    15.349019    35.692861 
 1095000     1.000162    24.087299    4.7171109    1.5002393    6.2173502    4.6064691   0.11064177    60.786227    27.451871    45.726149 
 1098000    0.9995693    24.126571     4.719981    1.4993502    6.2193313    4.6093848   0.11059618    40.207443    12.494334    38.015247 
 1101000    1.0020309    24.126601    4.7208978    1.5030427    6.2239404    4.6085667   0.11233106    42.462118    3.7606856    53.088396 
 1104000   0.99996574    24.166528    4.7174359    1.4999449    6.2173808    4.6067597    0.1106762    30.078472    6.5923236    32.216945 
 1107000    1.0001017    24.077333    4.7171221    1.5001489    6.2172709    4.6062156   0.11090652    53.223659    44.115278    12.494352 
 1110000    1.0004662    23.993098    4.7207843    1.5006956    6.2214799    4.6073818    0.1134025    57.473818    33.796154    32.479656 
 1113000   0.99980666    24.064377    4.7176821    1.4997063    6.2173883    4.6076272   0.11005489    30.768618    27.466927    4.5290696 
 1116000    1.0016851    24.091423    4.7162791     1.502524    6.2188031    4.6075182   0.10876086    60.729082    54.223009     8.924655 
 1119000    1.0013647    24.065977    4.7174374    1.5020434    6.2194808    4.6078614   0.10957604    31.823601     5.730553    35.792941 
 1122000   0.99863287    24.087149    4.7183511    1.4979456    6.2162967    4.6078946   0.11045658     32.87448    10.906323    60.055985 
 1125000   0.99961475    24.141082    4.7182238    1.4994184    6.2176422    4.6070525   0.11117131    39.474514    4.8466987    47.500443 
 1128000    1.0015466    24.112539    4.7149868    1.5023161    6.2173029    4.6051247   0.10986207    53.445539    27.899712    35.042295 
 1131000    1.0003502    24.077216    4.7185273    1.5005217     6.219049    4.6076858   0.11084155    40.907397    20.853993    27.508104 
 1134000    1.0016458    24.118249    4.7182006     1.502465    6.2206656    4.6069984   0.11120218    28.356713    8.3285233    27.473517 
 1137000   0.99950243    24.172487    4.7168906    1.4992499    6.2161405     4.606241   0.11064957    33.782871    27.002955     9.300298 
 1140000    1.0011065    24.094302    4.7182712     1.501656    6.2199272    4.6082392   0.11003194    47.678115    40.296249    10.126018 
 1143000   0.99715285    24.077318    4.7178633    1.4957256    6.2135888    4.6071615   0.11070172    32.740853    22.222964    14.427833 
 1146000    1.0006653    24.108965     4.715831    1.5009942    6.2168252    4.6057716   0.11005941    55.517215    45.813627    13.310823 
 1149000    0.9983223    24.069077    4.7207424    1.4974797    6.2182222    4.6073558   0.11338667    19.551806    19.207787    0.4719052 
 1152000    1.0017074    24.156301    4.7136959    1.5025574    6.2162533    4.6028292   0.11086667    38.605239    16.077328    30.902491 
 1155000    1.0012445    24.161537    4.7187911     1.501863    6.2206541     4.608202   0.11058906    33.179312    13.006232    27.672269 
 1158000    1.0022545    24.146152     4.716415     1.503378     6.219793    4.6086315   0.10778353    49.337336     22.05149    37.429152 
 1161000    1.0013571    24.053319    4.7170009     1.502032    6.2190328    4.6058697   0.11113114    46.709362    5.0093309    57.201701 
 1164000    1.0008613    24.146006    4.7184442    1.5012883    6.2197325    4.6077328   0.11071144    43.643161    31.323704    16.899121 
 1167000    1.0023686    24.188596    4.7188794    1.5035492    6.2224286    4.6075013   0.11137808    40.183111    23.787039    22.491187 
 1170000    1.0030621    24.185093    4.7152945    1.5045894    6.2198838    4.6039855   0.11130899    50.784796    25.479493    34.712358 
 1173000    1.0037267    24.128755    4.7189528    1.5055863    6.2245391    4.6070866   0.11186614    68.229307    30.902469    51.202807 
 1176000    1.0007766    24.189864    4.7141948    1.5011612    6.2153561    4.6037752   0.11041959    56.765059    32.538875    33.232085 
 1179000    1.0016258    24.078277    4.7183623     1.502435    6.2207973    4.6079514   0.11041091    58.084853    23.891408      46.9046 
 1182000    1.0020967    24.126959    4.7141743    1.5031413    6.2173156    4.6038657   0.11030864    32.920517    19.380763    18.573055 
 1185000    1.0029784    24.103609    4.7154014    1.5044639    6.2198653    4.6053249   0.11007649    47.293979    16.763959    41.879324 
 1188000    1.0030074    24.118597    4.7178154    1.5045073    6.2223227    4.6066662   0.11114912    52.575575    44.691709    10.814633 
 1191000   0.99989416    24.115644     4.716962    1.4998375    6.2167995    4.6062169   0.11074516     51.25979    17.627597    46.134705 
 1194000    1.0029017    24.083789    4.7184447    1.5043488    6.2227934    4.6083034   0.11014128    41.261526    13.113257    38.612174 
 1197000    0.9996722    24.113248    4.7195139    1.4995046    6.2190184    4.6082953   0.11121854    36.896507    14.342432    30.938382 
 1200000   0.99810741    24.020546    4.7165167    1.4971574    6.2136741    4.6063331   0.11018353    58.090542    32.548049    35.037722 
 1203000    1.0003953    24.098167    4.7155184    1.5005893    6.2161076    4.6052463   0.11027202    58.063385    33.417298    33.808083 
 1206000     1.000856    24.094417    4.7155356    1.5012803    6.2168159    4.6058887    0.1096469    43.446356    8.9300397    47.347495 
 1209000   0.99933001     24.08092    4.7163627    1.4989913     6.215354    4.6063949   0.10996778    31.377445     9.873905    29.497317 
 1212000    1.0005629    24.157222    4.7143457    1.5008406    6.2151864    4.6045252   0.10982052    49.599659    25.976228    32.405262 
 1215000    1.0010009    24.097225    4.7169361    1.5014976    6.2184337    4.6074064   0.10952972    35.916786    18.559963    23.809089 
 1218000    1.0002299    24.106995    4.7165174    1.5003412    6.2168586    4.6063675   0.11014995    37.361025    15.110494    30.521996 
 1221000     1.001716    24.098785    4.7146958    1.5025703    6.2172661    4.6067945   0.10790128     60.12739    29.748341    41.672229 
 1224000   0.99878895    24.091883    4.7184635    1.4981797    6.2166432    4.6075228   0.11094071    25.185618    1.6086337    36.754812 
 1227000   0.99871972    24.063695    4.7174785    1.4980759    6.2155543    4.6074009   0.11007759    47.723475     10.22804    51.434079 
 1230000    1.0003172     24.06716    4.7196025     1.500472    6.2200745    4.6075479   0.11205461    48.260107    33.319002    20.495347 
 1233000    1.0017229    24.111607    4.7205143    1.5025807     6.223095    4.6088055   0.11170876    29.401884    2.5335912    36.856376 
 1236000    1.0007997    24.116952    4.7191127    1.5011958    6.2203085    4.6062235   0.11288917    36.322173     12.47367    32.714002 
 1239000    1.0017231    24.075966    4.7165395    1.5025809    6.2191204    4.6059911    0.1105484    45.059146    11.674513    45.795117 
 1242000    1.0017199    24.114049    4.7164719    1.5025762     6.219048    4.6065276   0.10994424    56.018471    21.013611    48.017652 
 1245000    1.0006555    24.102009     4.718602    1.5009796    6.2195815    4.6067809   0.11182103    55.174702    26.690423    39.073094 
 1248000    1.0001835    24.142664    4.7170945    1.5002716    6.2173661    4.6061112   0.11098331    47.146651    17.829538    40.215527 
 1251000    1.0006757     24.09141    4.7147676    1.5010099    6.2157774    4.6045595   0.11020811    60.650763    21.925706    53.120803 
 1254000   0.99988285    24.075672    4.7151283    1.4998206    6.2149489     4.605349   0.10977931    52.811645     46.36779     8.839309 
 1257000    1.0014052    24.108965    4.7162152    1.5021041    6.2183193    4.6053236   0.11089159    26.403354    23.127751    4.4932835 
 1260000     1.000349     24.15002    4.7172681    1.5005197    6.2177878    4.6062703   0.11099776    34.370579     25.84221    11.698726 
 1263000    1.0034626    24.101389    4.7153556    1.5051902    6.2205458    4.6056634    0.1096922    45.543167     41.66941    5.3137971 
 1266000    0.9995942    24.123956    4.7169032    1.4993876    6.2162908    4.6052586    0.1116446    52.118169    17.833669    47.029502 
 1269000    1.0007144    24.069038    4.7148045    1.5010679    6.2158724    4.6056849   0.10911966    39.973346    5.6928758    47.023975 
 1272000    1.0015401    24.117142    4.7164007    1.5023064    6.2187071    4.6053271   0.11107361    37.940509    21.609691    22.401675 
 1275000    1.0016173    24.041048    4.7165343    1.5024223    6.2189565    4.6069882   0.10954607    70.784245    32.618547    52.353507 
 1278000   0.99767894    24.129025    4.7169322    1.4965147    6.2134469    4.6056256   0.11130666    42.038076    42.061351  0.031927509 
 1281000   0.99973452    24.125424    4.7173813    1.4995981    6.2169794    4.6075196    0.1098617    34.006077     12.23415    29.865476 
 1284000    1.0007599    24.058228    4.7187542    1.5011361    6.2198903    4.6079688   0.11078545    59.083815    25.930942    45.477201 
 1287000    1.0015654    24.135536    4.7149441    1.5023443    6.2172884    4.6049083   0.11003576    29.349483    12.783098    22.724812 
 1290000    1.0015557     24.14997     4.717468    1.5023299    6.2197979    4.6068961    0.1105719    47.528485    43.513803     5.507109 
 1293000    1.0010001     24.16383    4.7180645    1.5014964    6.2195608    4.6080124   0.11005203    51.542959    27.855851    32.492611 
 1296000    1.0026512     24.10892    4.7175197     1.503973    6.2214927     4.606838   0.11068166    57.424817    47.420191    13.723769 
 1299000    1.0007052    24.051069    4.7162468    1.5010541    6.2173009     4.604979   0.11126787    46.270666    8.0903791    52.373519 
 1302000    1.0007689    24.097319    4.7165913    1.5011496    6.2177408    4.6052294   0.11136192     35.03785     34.03557      1.37487 
 1305000    1.0023615    24.082799     4.715054    1.5035386    6.2185925    4.6059097   0.10914423    41.081217     25.78532     20.98203 
 1308000    1.0007868    24.074466    4.7164855    1.5011765     6.217662    4.6067289   0.10975656    65.435654    24.897663    55.607682 
 1311000    1.0040492    24.127651    4.7182261    1.5060701    6.2242962    4.6067381   0.11148795    83.644198    27.474702    77.050079 
 1314000   0.99971882    24.150882    4.7177942    1.4995745    6.2173688    4.6064192   0.11137502    37.709446    31.290032    8.8057826 
 1317000    1.0011504    24.069897     4.714983    1.5017219    6.2167049    4.6039187   0.11106437    34.660676    18.920479    21.591497 
 1320000    1.0004329    23.983597    4.7181416    1.5006456    6.2187872    4.6088077   0.10933393    64.944997     34.13304    42.266069 
 1323000   0.99894297    24.155405    4.7162598    1.4984108    6.2146705    4.6051768   0.11108296    40.322904    10.799164    40.498966 
 1326000    1.0008115    24.097334    4.7145718    1.5012136    6.2157854     4.605044   0.10952783    36.849182    11.468286    34.816051 
 1329000    1.0019606    24.103843    4.7168273    1.5029371    6.2197644    4.6060358   0.11079147    41.221894    15.807879    34.861481 
 1332000    1.0023038    24.111032    4.7189088     1.503452    6.2223607    4.6057303   0.11317844    62.496391    25.884329    50.222318 
 1335000   0.99945244    24.027322    4.7136434    1.4991749    6.2128184    4.6052186    0.1084248    37.689356    40.575771    3.9594182 
 1338000   0.99888112     24.04366    4.7168872     1.498318    6.2152051    4.6068628   0.11002437    49.231727    14.622296    47.475224 
 1341000    1.0004589    24.060226    4.7190639    1.5006846    6.2197485    4.6086569   0.11040702    27.434125    8.4338293    26.063511 
 1344000     1.001341    24.057185    4.7164352    1.5020078     6.218443    4.6077423   0.10869291    52.537478    29.449776    31.670379 
 1347000   0.99695643    24.076997     4.716322    1.4954309    6.2117529    4.6077557   0.10856627    32.402353    4.4037959    38.406808 
 1350000   0.99988608    24.104157    4.7196013    1.4998254    6.2194267    4.6081182   0.11148306    45.406068    35.010899    14.259495 
 1353000    1.0012928    24.158612    4.7185249    1.5019355    6.2204603    4.6061635   0.11236135    56.020968    12.481282    59.725234 
 1356000    1.0007177    24.115968    4.7189046    1.5010728    6.2199774    4.6073432   0.11156144    39.760397    16.042193    32.535266 
 1359000    1.0002986    24.153299    4.7184824    1.5004441    6.2189265    4.6060036   0.11247879    49.419434    26.033194    32.079897 
 1362000    1.0012315    24.157982    4.7163802    1.5018435    6.2182237    4.6054137   0.11096649    44.510606    29.228905    20.962558 
 1365000    1.0004443    24.088899    4.7164261    1.5006628    6.2170888    4.6067482   0.10967788     48.46375    28.683483    27.133432 
 1368000    1.0033791    24.078286    4.7160645    1.5050648    6.2211294    4.6046513    0.1114132    33.242325    35.170132    2.6444548 
 1371000    1.0035001    24.102163      4.71608    1.5052465    6.2213265    4.6065007   0.10957938    64.102224    54.259244    13.502032 
 1374000    1.0009632    24.138671    4.7164219     1.501441     6.217863    4.6048621   0.11155982    39.221144    14.519868    33.883788 
 1377000    1.0005038    24.109191    4.7183257     1.500752    6.2190777    4.6075359   0.11078977    51.065696    41.234948    13.485255 
 1380000   0.99964092    24.093975    4.7171533    1.4994577     6.216611    4.6080932   0.10906004    38.674359    5.9493329    44.890306 
 1383000   0.99926567      24.0863    4.7145626    1.4988948    6.2134574    4.6042046   0.11035801    46.514753    16.814346    40.741307 
 1386000    1.0001048    24.082448    4.7183833    1.5001534    6.2185367    4.6065596   0.11182364     53.22967    23.034034    41.420635 
 1389000    1.0008504    24.082014    4.7170602    1.5012719     6.218332    4.6060466   0.11101359    35.371924    19.252277    22.112004 
 1392000    1.0013971    24.081758    4.7179765    1.5020919    6.2200684    4.6077813   0.11019519    56.243691    17.664045    52.921336 
 1395000    1.0016466    24.050531    4.7180949    1.5024662    6.2205611    4.6065521   0.11154277    60.697213    21.949068    53.152474 
 1398000   0.99814665    24.096575    4.7139925    1.4972163    6.2112088    4.6044377   0.10955485    49.424145    40.176579    12.685279 
 1401000    1.0009443    24.090542    4.7173727    1.5014128    6.2187855     4.606057   0.11131567    36.214061    20.631974     21.37461 
 1404000    1.0013968    24.124666    4.7173861    1.5020915    6.2194775    4.6069183   0.11046777     48.57742    18.157356    41.728492 
 1407000    1.0024846    24.102541    4.7152969    1.5037232    6.2190201    4.6060742    0.1092227    78.392919    36.757996    57.112389 
 1410000   0.99952669    24.076938    4.7162086    1.4992863    6.2154949    4.6056628   0.11054581    34.416436     9.986028    33.512227 
 1413000    1.0005912    24.175431    4.7168088    1.5008831    6.2176919    4.6058216   0.11098724    50.374545    25.541059    34.065145 
 1416000    1.0006353    24.112403    4.7155535    1.5009492    6.2165027    4.6058545     0.109699     58.49461    26.261812    44.215096 
 1419000    1.0033426    24.099019    4.7181215    1.5050102    6.2231317    4.6075382   0.11058323    42.985623     21.13258    29.976746 
 1422000    1.0004307    24.094002    4.7165547    1.5006423     6.217197    4.6066085   0.10994626    68.850261    37.243396    43.356476 
 1425000    1.0011331    24.107851    4.7170322    1.5016959    6.2187281    4.6059039   0.11112829    35.838089    19.542811    22.352924 
 1428000    1.0018312    24.123488    4.7164512    1.5027431    6.2191942    4.6067103   0.10974085    39.046119    46.883154    10.750394 
 1431000    1.0007622    24.115926    4.7166165    1.5011396    6.2177561    4.6066655   0.10995105    63.872846    19.367259    61.050201 
 1434000    1.0026571    24.165055    4.7172227    1.5039819    6.2212046    4.6056207   0.11160209    22.761347    29.627427    9.4184938 
 1437000    1.0003085    24.110818    4.7168221     1.500459    6.2172811    4.6055642   0.11125791    46.354799    32.545717    18.942503 
 1440000    1.0008802    24.021491    4.7144126    1.5013167    6.2157292    4.6043122   0.11010037    38.458271    8.3191062    41.343171 
 1443000   0.99998529    24.067361    4.7170085    1.4999742    6.2169827    4.6065999    0.1104086    66.354789    37.213076    39.974924 
 1446000    1.0014034    24.074939    4.7188757    1.5021013     6.220977    4.6070237   0.11185201    36.289065    27.235564    12.419071 
 1449000    1.0012044     24.10378    4.7166353    1.5018029    6.2184382    4.6065567   0.11007859    47.479541    65.895972      25.2626 
 1452000    1.0015541    24.145752    4.7171364    1.5023274    6.2194638    4.6063674   0.11076897    44.244569    23.745446    28.119517 
 1455000    1.0016486    24.120032    4.7172229    1.5024692    6.2196922    4.6067177   0.11050523    50.815647    22.537564    38.790246 
 1458000    1.0023814    24.078062    4.7180106    1.5035684    6.2215789     4.606825   0.11118555    42.864576     12.02462    42.304476 
 1461000    1.0002582    24.096301    4.7160655    1.5003836    6.2164491    4.6060245   0.11004099    51.602904    37.108422    19.882696 
 1464000   0.99995563    24.125774    4.7126268    1.4999297    6.2125565    4.6027069   0.10991995    36.143297    3.2065156    53.977807 
 1467000    1.0023913    24.133646    4.7181026    1.5035832    6.2216858    4.6077901    0.1103125    43.699695    6.5418927    50.970933 
 1470000   0.99998627    24.135304    4.7175284    1.4999757    6.2175041    4.6063578   0.11117068    51.668444    30.094904     29.59334 
 1473000   0.99974416    24.028817     4.717001    1.4996125    6.2166135    4.6066547   0.11034634    29.894054    6.4137849    49.805003 
 1476000    1.0005752    24.155728    4.7193701    1.5008591    6.2202292    4.6082951   0.11107499    61.634251    35.380909    36.012824 
 1479000   0.99921347    24.034945    4.7153687    1.4988165    6.2141852    4.6066752   0.10869355    35.026359     18.34594    22.881238 
 1482000   0.99875349    24.053958    4.7183521    1.4981265    6.2164786    4.6062203   0.11213177    40.241043    32.345542    10.830592 
 1485000    1.0003962    24.070999    4.7152588    1.5005905    6.2158493    4.6058878   0.10937102    46.565648    31.902823    20.113619 
 1488000    1.0014902    24.111039    4.7200295    1.5022315    6.2222611    4.6080813   0.11194825    24.014319    19.597693    6.0584737 
 1491000    1.0012679      24.1851    4.7189018    1.5018982       6.2208    4.6075914   0.11131047    50.281781    17.739135    44.640129 
 1494000    1.0017776    24.134219    4.7163074    1.5026627    6.2189701    4.6077433    0.1085641    40.169043    45.510384    7.3269442 
 1497000   0.99985491    24.112654    4.7159142    1.4997787    6.2156929    4.6049724   0.11094187    50.609916    2.1164853    72.327041 
 1500000    1.0022014    24.090688     4.719938    1.5032984    6.2232364    4.6072233   0.11271464    46.518342    38.930194    10.408985 
 1503000    1.0017981    24.107127    4.7162853    1.5026934    6.2189787    4.6070858   0.10919957    79.299807    51.985143    37.468683 
 1506000   0.99985003    24.170062    4.7158067    1.4997713     6.215578    4.6053127   0.11049394    41.971876    30.940891    15.131671 
 1509000    1.0017243    24.047365    4.7192584    1.5025828    6.2218412    4.6092461   0.11001228    44.605211    25.275266    26.515705 
 1512000    1.0005786    24.163622    4.7174999    1.5008642    6.2183641    4.6068362   0.11066371     30.98308    5.8082275    34.533413 
 1515000    1.0009632    24.097662    4.7182623    1.5014411    6.2197034    4.6064234   0.11183887    69.137824    31.912586    51.063438 
 1518000    1.0003496    24.132708    4.7163306    1.5005206    6.2168512    4.6041343   0.11219625    37.439938    15.767049     29.72962 
 1521000    1.0013399    24.078302    4.7166277    1.5020061    6.2186338    4.6057199   0.11090775     38.41378    18.625502     27.14442 
 1524000    1.0009369     24.10452    4.7177503    1.5014017    6.2191519    4.6056226   0.11212767    55.676441     26.85492    39.535703 
 1527000    1.0005056    24.136513    4.7160315    1.5007546    6.2167862     4.605754   0.11027758    59.872525    18.110722    57.286435 
 1530000   0.99836753    24.001123    4.7187653    1.4975476    6.2163129    4.6079271   0.11083814    60.035109    30.363661    40.701583 
 1533000     1.000973    24.129383    4.7134133    1.5014557    6.2148691    4.6039478   0.10946559    39.585793    40.392188    1.1061657 
 1536000    0.9994982    24.058963    4.7170595    1.4992436    6.2163031    4.6064468   0.11061272    40.656283    17.357305    31.960196 
 1539000    1.0017693    24.093763    4.7182894    1.5026502    6.2209396    4.6071131   0.11117634    75.704579    28.255951    65.087295 
 1542000    1.0000802    24.032836    4.7159085    1.5001166    6.2160251    4.6051548   0.11075376    15.300386    8.7625055    8.9682877 
 1545000    1.0015712     24.19617    4.7200092     1.502353    6.2223623    4.6077085   0.11230076    49.751135    19.707613    41.211974 
 1548000     1.000927    24.143402    4.7182805    1.5013867    6.2196672    4.6067282   0.11155231    52.113397    39.469777    17.343791 
 1551000    1.0023098    24.112663    4.7179539    1.5034609    6.2214148    4.6074102   0.11054373    56.980613    26.510457    41.797205 
 1554000    1.0004673    24.104471    4.7169231    1.5006972    6.2176203    4.6068309   0.11009221     22.10105    6.0834382    38.661858 
 1557000    1.0003068    24.111075    4.7169919    1.5004564    6.2174484    4.6072433   0.10974861    30.237548    17.101346    18.019485 
 1560000    1.0018599    24.089019    4.7149882    1.5027862    6.2177744    4.6043092   0.11067901    29.174092    6.4808458    31.129289 
 1563000    1.0005271    24.071297    4.7179368    1.5007869    6.2187237    4.6061004   0.11183641    31.914401    35.165869    4.4601773 
 1566000   0.99826646    24.103385    4.7196686     1.497396    6.2170645    4.6073812   0.11228738    61.863417    26.448254    48.580481 
 1569000    1.0019639    24.115668    4.7136962    1.5029421    6.2166383     4.604461   0.10923525    32.476216    11.683708    28.521965 
 1572000   0.99929719     24.11866    4.7142363    1.4989421    6.2131784    4.6046934   0.10954285    41.631705    11.847552    40.856185 
 1575000   0.99892671    24.108988    4.7184389    1.4983864    6.2168253     4.607327   0.11111193    37.462867    0.9119152     50.13849 
 1578000    1.0006374    24.175606     4.714998    1.5009524    6.2159504    4.6055951   0.10940287    58.134415    50.307429    10.736608 
 1581000   0.99982545    24.137198     4.716238    1.4997345    6.2159725    4.6063126   0.10992547    44.664345    12.699971    43.846888 
 1584000    1.0024348    24.095212    4.7142696    1.5036485     6.217918    4.6034869   0.11078268    45.859732    40.942888    6.7446432 
 1587000    1.0021809    24.108562    4.7150615    1.5032676    6.2183291    4.6051726   0.10988896    35.412031    14.852148    28.202864 
 1590000    1.0014521    24.121047    4.7167526    1.5021745    6.2189271    4.6066334   0.11011919      54.4944    37.899554    22.763854 
 1593000   0.99954037    24.096015    4.7130504    1.4993068    6.2123572    4.6033613   0.10968909    51.685347    12.281897    54.051383 
 1596000   0.99968465    24.110172    4.7152716    1.4995233    6.2147948    4.6053971   0.10987442    44.440109      63.0153    25.480377 
 1599000    1.0016866     24.10833    4.7183745    1.5025261    6.2209006    4.6078675   0.11050697     59.24431    29.369764    40.980183 
 1602000   0.99944154    24.097896    4.7161912    1.4991586    6.2153498    4.6068592   0.10933199    45.501851    21.947868    32.309998 
 1605000    1.0004551    24.043336    4.7170326    1.5006789    6.2177115    4.6071327   0.10989989    50.730369    19.736794    42.515201 
 1608000    1.0016269    24.102666    4.7160557    1.5024367    6.2184923    4.6051095   0.11094613     61.11226    50.497237    14.561077 
 1611000    1.0015579    24.129277    4.7141447    1.5023331    6.2164779    4.6051832   0.10896156    21.567355    20.214116    1.8562955 
 1614000     1.000375    24.059831    4.7167774    1.5005587    6.2173361    4.6049471   0.11183027    45.464461    15.259279    41.433729 
 1617000   0.99927478    24.068402    4.7175054    1.4989085    6.2164139    4.6062098   0.11129564    57.401942    22.684046     47.62401 
 1620000    1.0008568    24.060741    4.7160776    1.5012814     6.217359    4.6052707   0.11080685    59.347179    44.156716    20.837402 
 1623000    1.0017342    24.182419    4.7156217    1.5025976    6.2182193     4.605018   0.11060374    37.298093    15.066829    30.495569 
 1626000    0.9992053    24.087176    4.7159812    1.4988042    6.2147854    4.6057459   0.11023523    38.696044    19.705802    26.049721 
 1629000    1.0004453     24.07014    4.7150714    1.5006642    6.2157356    4.6048513   0.11022014    32.210181    14.830626    23.840273 
 1632000   0.99916263    24.085242    4.7153167    1.4987402     6.214057    4.6049552   0.11036154    34.799735    10.716323    33.036238 
 1635000    1.0028842     24.05799    4.7166421    1.5043226    6.2209647     4.605541   0.11110116    63.619194    37.041355    36.457949 
 1638000    1.0013425    24.108769    4.7152427      1.50201    6.2172527    4.6039865   0.11125622    55.230347      24.2578    42.486356 
 1641000    1.0022912    24.103916    4.7149077     1.503433    6.2183408    4.6046922   0.11021554    49.259315    35.643678    18.677147 
 1644000    1.0000035    24.091517    4.7175284    1.5000015      6.21753    4.6071557   0.11037268    66.878604    30.140872    50.394705 
 1647000    1.0016697    24.145936    4.7167475    1.5025008    6.2192483    4.6050159    0.1117316    60.044857    34.822275    34.598885 
 1650000    1.0000072    23.990199    4.7153407    1.5000071    6.2153478    4.6045398   0.11080086    39.143473    13.261627    35.503226 
 1653000   0.99954124    24.129586    4.7151898    1.4993082    6.2144979    4.6048148   0.11037497    39.986609    29.585754    14.267294 
 1656000    1.0019435     24.07057    4.7172932    1.5029115    6.2202047     4.605246   0.11204724    64.984303    23.038803     57.53842 
 1659000   0.99731453    24.076647    4.7172694    1.4959681    6.2132375     4.604992   0.11227739    49.753832     14.18115    48.796556 
 1662000    1.0006887       24.132    4.7188751    1.5010293    6.2199044    4.6069886   0.11188649    34.138301    28.243681    8.0859001 
 1665000   0.99976021    24.040257    4.7165268    1.4996366    6.2161634    4.6049026    0.1116242    40.898758    6.9497285    46.569323 
 1668000    1.0014299    24.147528    4.7165526    1.5021411    6.2186937    4.6070716   0.10948099    45.279959    17.239618    38.464126 
 1671000   0.99990226    24.127768    4.7173861    1.4998497    6.2172357    4.6061177   0.11126831    45.649852    8.4194835    51.070476 
 1674000    1.0012342    24.113753     4.714639    1.5018477    6.2164866    4.6063303   0.10830872    35.388433    18.710298    22.878106 
 1677000   0.99975692    24.163463    4.7193572    1.4996317    6.2189889     4.606488   0.11286917     39.84008    18.380883    29.436492 
 1680000    1.0009537    24.092768    4.7153009    1.5014268    6.2167278    4.6044664   0.11083447    27.840466    24.198183    4.9962746 
 1683000    1.0009102    24.129199     4.717966    1.5013615    6.2193275    4.6069397   0.11102629    59.757554    41.346834    25.254766 
 1686000    1.0017258    24.089296    4.7179888     1.502585    6.2205738    4.6063553   0.11163342    34.231562    15.236395    26.056477 
 1689000   0.99957006    24.082113    4.7146397    1.4993514    6.2139911     4.605886   0.10875373     37.59845    19.291751    25.112076 
 1692000    1.0005608    24.169684    4.7144672    1.5008375    6.2153047    4.6051687    0.1092985     69.18129    37.524047    43.425584 
 1695000    1.0034123    24.165205    4.7147965    1.5051147    6.2199112     4.604489   0.11030746    50.472029    24.550521    35.557632 
 1698000    1.0024215    24.070959    4.7171407    1.5036285    6.2207692    4.6060757   0.11106499    77.328067    26.007189    70.399026 
 1701000   0.99966216    24.117678    4.7178324    1.4994895    6.2173219    4.6058267   0.11200572    46.519432     23.29052    31.864084 
 1704000   0.99944894    24.086217     4.719193    1.4991697    6.2183627    4.6071375   0.11205555    46.582927    33.117742    18.470766 
 1707000    1.0000933    24.078778    4.7156268    1.5001363     6.215763     4.606988   0.10863879    35.427591    2.4464365    45.241649 
 1710000    1.0025835     24.20747    4.7160481    1.5038716    6.2199196    4.6052209    0.1108272    48.362796     25.69287    31.097299 
 1713000    1.0005088    24.063587    4.7181803    1.5007595    6.2189398    4.6069383   0.11124202     66.07009    19.389163    64.034207 
 1716000    1.0015257    24.219008     4.714707    1.5022848    6.2169918    4.6042801   0.11042686    44.548483    12.720636    43.659606 
 1719000    1.0013693    24.115072    4.7153489    1.5020502    6.2173991    4.6059916   0.10935727    38.376672    17.701667    28.360782 
 1722000   0.99982888     24.14171    4.7157014    1.4997396     6.215441    4.6059052    0.1097962     27.87378     23.94917    5.3835544 
 1725000    1.0029054    24.145537    4.7151025    1.5043544     6.219457    4.6056291   0.10947347    52.916713    24.279396    39.283022 
 1728000   0.99987665     24.05038     4.715988    1.4998113    6.2157992    4.6058222   0.11016573    34.273423    31.335923    4.0294937 
 1731000   0.99991421    24.058337    4.7157678    1.4998676    6.2156354    4.6056512   0.11011664    27.415384    17.008502    14.275562 
 1734000    1.0017794    24.087095    4.7149313    1.5026654    6.2175967     4.605489   0.10944229    56.716182    13.526497    59.245122 
 1737000    1.0006139    24.112542    4.7151896    1.5009171    6.2161067    4.6043348   0.11085479    44.405725    15.967991    39.009246 
 1740000    1.0017483    24.081541    4.7133677    1.5026187    6.2159865    4.6035568   0.10981099    30.526466    4.4540186    35.764682 
 1743000   0.99917633    24.112518    4.7185223    1.4987608     6.217283    4.6078986   0.11062371    63.919924     27.27964    50.261032 
 1746000    1.0019566    24.089355    4.7148126    1.5029311    6.2177438    4.6047921   0.11002052    54.116024     4.842054    67.591194 
 1749000    1.0021378    24.069937    4.7186648    1.5032029    6.2218677    4.6073242   0.11134057    34.864705    25.874362    12.332434 
 1752000    1.0003125    24.148458    4.7183338    1.5004651    6.2187989    4.6065059   0.11182788    39.872512    41.798923    2.6425399 
 1755000   0.99984332    24.104125    4.7148333    1.4997613    6.2145946    4.6063193   0.10851407    38.909453     9.836771    66.867263 
 1758000   0.99928342    24.069259    4.7146551    1.4989214    6.2135765    4.6041249   0.11053015    48.245684    24.509047    32.560551 
 1761000    1.0000232    24.055221    4.7169861    1.5000311    6.2170172    4.6065002   0.11048594    38.341555    9.8881702    39.030715 
 1764000    1.0019768    24.127271    4.7169303    1.5029615    6.2198918    4.6068883   0.11004199    73.508204    46.239747    37.405299 
 1767000    1.0025982    24.108199    4.7157004    1.5038936    6.2195939    4.6063296   0.10937075    49.515042    54.678918    7.0835072 
 1770000    1.0012467    24.105612    4.7173712    1.5018664    6.2192376    4.6083201   0.10905116    52.450589    21.230652    42.825711 
 1773000    1.0006026     24.12929    4.7159588    1.5009001    6.2168589    4.6057087   0.11025012    41.490829    19.682663    29.915186 
 1776000   0.99961302    24.077112    4.7140182    1.4994158     6.213434    4.6045379   0.10948031    45.648253    33.078588    17.242342 
 1779000    1.0003118    24.202262    4.7183827     1.500464    6.2188467    4.6071884   0.11119426     46.65665    18.182314    39.059453 
 1782000    1.0013113    24.045897    4.7187055    1.5019632    6.2206687    4.6067442   0.11196127    38.843418    10.391192    39.029125 
 1785000    1.0017431    24.077827    4.7170861    1.5026109     6.219697    4.6058716   0.11121445     44.49853    17.257234    37.368041 
 1788000    1.0022272    24.078751    4.7186488     1.503337    6.2219858    4.6068138     0.111835    58.153474    16.774333    56.761522 
 1791000   0.99889784    24.156378    4.7175252     1.498343    6.2158682    4.6075337   0.10999145    36.364886    17.266179    26.198506 
 1794000   0.99981941    24.159744    4.7184741    1.4997254    6.2181995    4.6062745   0.11219969     50.95034     25.40984    35.034988 
 1797000   0.99934236    24.007441    4.7131996    1.4990098    6.2122094    4.6051669   0.10803277    45.188159    12.858787     44.34757 
 1800000   0.99938801    24.209623    4.7197772    1.4990783    6.2188555    4.6080496   0.11172757    55.761494    44.976954    14.793612 
 1803000    1.0011524    24.114496     4.717317    1.5017249    6.2190419    4.6045847   0.11273233    42.072173    17.846436    33.231471 
 1806000    1.0012442    24.108236    4.7163507    1.5018625    6.2182132    4.6055658    0.1107849    44.721997    21.303169    32.124599 
 1809000   0.99878612    24.168974    4.7166914    1.4981755    6.2148668    4.6059432   0.11074818    41.488423    23.266363    24.995973 
 1812000   0.99956651    24.050144    4.7174472     1.499346    6.2167932    4.6062907   0.11115651    55.355872    33.155077    30.453771 
 1815000   0.99974254    24.058406    4.7159211    1.4996101    6.2155312    4.6049588   0.11096226    42.149429    35.671987    8.8853825 
 1818000     0.998984    24.107756    4.7155981    1.4984723    6.2140704    4.6061438   0.10945425     20.07135     8.320746    16.118802 
 1821000    1.0018249    24.082163     4.718105    1.5027336    6.2208386    4.6066685   0.11143647    48.745892    17.607608    42.713704 
 1824000    1.0001972    24.103186    4.7162479     1.500292      6.21654    4.6049392   0.11130878    45.597109    18.455731    37.230979 
 1827000    0.9995433    24.044577    4.7180398    1.4993112     6.217351     4.608027   0.11001277    53.366541     28.72443     33.80263 
 1830000    1.0002372    24.155526    4.7156149    1.5003521     6.215967    4.6060151   0.10959988    27.612448    18.554972    12.424524 
 1833000    1.0033085    24.158551    4.7169619     1.504959    6.2219209    4.6053486    0.1116133    40.736662   0.30756251    55.458311 
 1836000    1.0039396    24.141476    4.7179401    1.5059056    6.2238457    4.6062572   0.11168297    45.194618    7.2321685    52.074702 
 1839000    1.0015775    24.086558    4.7171346    1.5023625    6.2194971    4.6065473   0.11058729    44.368778    15.596921    39.467575 
 1842000    1.0010606    24.124788    4.7139779    1.5015872    6.2155651     4.605028   0.10894992    16.890452    6.4547933    14.315035 
 1845000   0.99924437    24.067688    4.7178455    1.4988628    6.2167083    4.6064427   0.11140276    66.632419    30.832279    49.108571 
 1848000    0.9986549    24.078783    4.7152396    1.4979786    6.2132182    4.6059876   0.10925202    35.693736    24.645887    15.154803 
 1851000    1.0009391    24.158965    4.7169929    1.5014049    6.2183978    4.6064026    0.1105903    40.428347    22.399104    24.731477 
 1854000   0.99944501    24.076109    4.7162452    1.4991638     6.215409    4.6059968   0.11024836    52.637597    30.556774    30.289202 
 1857000   0.99996968    24.100743    4.7174789    1.4999508    6.2174297    4.6085419   0.10893699    65.662857    30.431871    48.327836 
 1860000   0.99799708    24.133575    4.7169152    1.4969919    6.2139071    4.6065414   0.11037381    68.347017    27.800608    55.619229 
 1863000   0.99763206    24.126898    4.7145439    1.4964444    6.2109883    4.6050408   0.10950312    30.433146    16.860884    18.617647 
 1866000    1.0007639    24.095409    4.7163768    1.5011421    6.2175189    4.6059464   0.11043042    45.944896    21.629447    33.354532 
 1869000    1.0003783    24.069677    4.7147694    1.5005637    6.2153331    4.6035886   0.11118085    43.037915    23.068631    27.392714 
 1872000   0.99955475    24.048678    4.7145718    1.4993284    6.2139002    4.6046872   0.10988463    32.758631    15.634355    23.490096 
 1875000    1.0033631    24.058242    4.7154854     1.505041    6.2205263    4.6064384   0.10904699    57.638502    26.922443     42.13452 
 1878000    1.0003354    24.034696    4.7162695    1.5004993    6.2167688    4.6061867   0.11008278    23.210311    15.660429    10.356493 
 1881000   0.99997487    24.094113     4.714718    1.4999586    6.2146766    4.6034493    0.1112687    36.920295    35.119221    2.4706091 
 1884000   0.99933124    24.059314    4.7144811    1.4989931    6.2134742    4.6043911   0.11008996       63.283     37.67911    35.121942 
 1887000    1.0007555    24.069193     4.717376    1.5011295    6.2185055    4.6056193   0.11175676    40.479793    8.6006781    43.729934 
 1890000    1.0038435    24.065765    4.7145658    1.5057616    6.2203274    4.6065809   0.10798495    38.611486     14.69405    32.808561 
 1893000    0.9983783    24.086117    4.7164442    1.4975637    6.2140079    4.6057621   0.11068206    40.743806    18.129667    31.020773 
 1896000   0.99922902    24.174826     4.716436    1.4988398    6.2152758    4.6046122   0.11182379    45.353811    25.193081    27.655328 
 1899000    1.0009397     24.09028    4.7177973    1.5014058    6.2192031    4.6058394   0.11195783    41.496496    4.3987218     50.88859 
 1902000   0.99949032    24.088902    4.7169704    1.4992318    6.2162021    4.6074679   0.10950248    51.805439    24.213358    37.849228 
 1905000    1.0014929    24.182119    4.7174466    1.5022356    6.2196822    4.6041297   0.11331689    44.337839    40.479823    5.2922043 
 1908000     1.000139    24.065765    4.7176073    1.5002047     6.217812    4.6071235   0.11048374     45.78679     14.14474    43.404743 
 1911000    1.0017867    24.112226    4.7154167    1.5026764    6.2180931    4.6032067   0.11220999    20.619381    2.7747987     24.47817 
 1914000   0.99996721    24.025135    4.7178553    1.4999471    6.2178024    4.6072277   0.11062762    28.170725     24.62936    4.8578397 
 1917000    1.0012822    24.089594    4.7134474    1.5019195    6.2153669    4.6048942   0.10855316    40.863266    22.169588    25.642911 
 1920000    1.0009629    24.125676    4.7156599    1.5014407    6.2171006    4.6058929   0.10976698    48.034967    5.8431193    57.876346 
 1923000    0.9996219    24.148485    4.7160008    1.4994291    6.2154299    4.6078437   0.10815709    36.641153    22.401541     19.53308 
 1926000     1.001284    24.089674    4.7158205    1.5019223    6.2177428    4.6054713   0.11034915    68.523778    28.690394    54.641142 
 1929000    1.0019295    24.117786     4.715858    1.5028906    6.2187486    4.6053656   0.11049239    42.293843    24.886888    23.877858 
 1932000    1.0003499    24.128925    4.7166846    1.5005212    6.2172057    4.6059938   0.11069072    44.164756    20.682064    32.212205 
 1935000    1.0036778    24.106651    4.7165596    1.5055129    6.2220725    4.6048919   0.11166763    44.681153    21.276272    32.105467 
 1938000    1.0004436    24.102178    4.7171999    1.5006616    6.2178615    4.6066909   0.11050904    51.825996    31.552408    27.810141 
 1941000   0.99880604    24.054447    4.7150989    1.4982053    6.2133042    4.6045915   0.11050731    42.253218    22.470172    27.137244 
 1944000    1.0017043    24.056876    4.7151641    1.5025527    6.2177168    4.6048259   0.11033827     54.33448    41.809193    17.181468 
 1947000    1.0021524    24.093302    4.7171765    1.5032249    6.2204014    4.6060336   0.11114286     44.86534    34.119695    14.740258 
 1950000    1.0003372    24.053777    4.7164099    1.5005021     6.216912    4.6048169   0.11159298    32.855607    20.202356    17.357002 
 1953000    1.0001675    24.063614    4.7165151    1.5002475    6.2167627    4.6046908   0.11182431    38.227148    24.160155    19.296291 
 1956000    1.0025207    24.097946    4.7161485    1.5037774    6.2199259    4.6065843   0.10956418    72.502305    38.670119    46.409044 
 1959000      1.00011    24.052791    4.7163683    1.5001613    6.2165296    4.6055845   0.11078382    26.773868    17.673971    12.482714 
 1962000    1.0019744    24.182094    4.7157597    1.5029578    6.2187176    4.6053207   0.11043903    47.231201    37.973761    12.698824 
 1965000    1.0001176    24.026834    4.7178045    1.5001727    6.2179773    4.6060365   0.11176806    59.220834    36.573312    31.066567 
 1968000   0.99982646    24.078142    4.7151323     1.499736    6.2148683    4.6037232   0.11140912    55.789492    21.704898    46.755282 
 1971000    0.9988562    24.110657    4.7153135    1.4982806    6.2135941     4.606564   0.10874959    56.390335    24.068476    44.337264 
 1974000    1.0014177    24.094339    4.7178626    1.5021228    6.2199855    4.6063578   0.11150483    43.056458    14.142723    39.662196 
 1977000    1.0035889    24.070927    4.7150552    1.5053796    6.2204348    4.6040104   0.11104476    41.831226    34.895103    9.5145746 
 1980000    1.0000911    24.024087    4.7168307    1.5001329    6.2169637    4.6053948   0.11143594    70.354768    41.339089    39.802036 
 1983000   0.99918604    24.077256    4.7165213    1.4987754    6.2152966    4.6050562   0.11146504    41.868132    28.754896    17.987981 
 1986000    1.0001591    24.143679    4.7142504     1.500235    6.2144853    4.6027151   0.11153523     51.25961    52.486801    1.6833888 
 1989000   0.99942228    24.098438    4.7131172    1.4991297    6.2122469    4.6048156   0.10830165    58.774217    26.783599    43.882887 
 1992000    1.0026664    24.087255    4.7158649    1.5039959    6.2198608    4.6051141   0.11075082    53.702875     25.05088    39.303157 
 1995000    1.0015362    24.129465    4.7178624    1.5023006     6.220163    4.6051511   0.11271134    48.873261    24.207364    33.835256 
 1998000     1.000274    24.076433    4.7170351    1.5004073    6.2174424    4.6065892   0.11044591     51.34611    30.687648    28.338088 
 2001000   0.99976956    24.152887     4.715915    1.4996506    6.2155657    4.6045118    0.1114032    46.075829    17.899947    38.650051 
 2004000    1.0016805     24.04659    4.7150287    1.5025171    6.2175458    4.6046415   0.11038728    53.973606    28.503883    34.937899 
 2007000    1.0025562    24.050318    4.7147851    1.5038306    6.2186157    4.6053877   0.10939733     44.29882    12.138514    77.417483 
 2010000   0.99964361    24.139471     4.713249    1.4994617    6.2127107    4.6032486   0.11000045    45.453112    32.365681    17.952585 
 2013000    1.0008281    24.188818    4.7149095    1.5012384    6.2161479    4.6053876   0.10952188     21.71601    13.513841    11.251264 
 2016000    1.0026145    24.113342    4.7155405     1.503918    6.2194585    4.6047537   0.11078683     51.52542    38.899547    17.319446 
 2019000    1.0016989    24.090582    4.7140757    1.5025446    6.2166203    4.6052303   0.10884546    53.322438    35.783751     24.05856 
 2022000    1.0003977    24.113912    4.7160497    1.5005929    6.2166426      4.60645   0.10959969    38.864198    12.452998    36.229363 
 2025000     1.001575    24.077052     4.718229    1.5023588    6.2205878    4.6078041   0.11042493     49.64524    9.0102464    55.740744 
 2028000    1.0008839    24.129866    4.7153962    1.5013221    6.2167184    4.6048158   0.11058038    43.908186    20.681764    31.860669 
 2031000    1.0041194    24.137205    4.7177129    1.5061754    6.2238883    4.6073018   0.11041114    39.221956    25.120055    19.344176 
 2034000   0.99990254    24.111845    4.7176584    1.4998501    6.2175085     4.606302    0.1113564    46.358341    19.930951    36.251571 
 2037000    1.0011189    24.192309    4.7139186    1.5016746    6.2155932    4.6050657   0.10885293    32.501326    15.515106    23.300718 
 2040000    1.0020323    24.178346    4.7127919    1.5030448    6.2158366    4.6048356   0.10795623    49.726382    5.8940037    60.126732 
 2043000   0.99960516    24.133742    4.7152957     1.499404    6.2146997      4.60691   0.10838573    40.566578    24.950959    21.420607 
 2046000   0.99948217     24.04691    4.7142068    1.4992195    6.2134264    4.6049792   0.10922764    59.114886    30.660484    39.032109 
 2049000    1.0009671    24.077627    4.7191518     1.501447    6.2205987    4.6056575   0.11349425    34.254163    25.163966    12.469409 
 2052000    1.0005242    24.103864    4.7167762    1.5007825    6.2175587    4.6053162   0.11146001    40.260854    23.694219    22.725156 
 2055000    1.0021851    24.109172    4.7174474    1.5032739    6.2207213    4.6056512   0.11179618    33.065421    22.436917    14.579569 
 2058000    1.0016592    24.101608    4.7148922     1.502485    6.2173772    4.6048787   0.11001351    53.651482    23.985927    40.693501 
 2061000    1.0019072    24.157194     4.718586    1.5028571    6.2214431    4.6071796   0.11140639    38.483499    13.710416    33.982289 
 2064000     1.000034    24.075585    4.7156672    1.5000473    6.2157145    4.6053388   0.11032836    46.434476    3.8747774    58.380943 
 2067000   0.99844202    24.126279    4.7186068    1.4976593    6.2162661    4.6062035   0.11240331    62.623601    28.062914     47.40836 
 2070000    1.0008359    24.111317    4.7148323    1.5012501    6.2160824    4.6056226   0.10920965    57.343016    31.833199    34.992897 
 2073000   0.99882434    24.067097    4.7151668    1.4982328    6.2133996    4.6054577   0.10970909    42.501745    4.9473468    51.514961 
 2076000     1.001463    24.075913     4.718132    1.5021908    6.2203228    4.6068698   0.11126222    58.797928    23.563911    48.331996 
 2079000    1.0004824    24.089504    4.7181868    1.5007199    6.2189067    4.6066335   0.11155325    85.767448     36.96811    66.940121 
 2082000    1.0021814     24.10757    4.7192163    1.5032683    6.2224847    4.6078612   0.11135514    49.949417    9.3039151    55.755159 
 2085000    1.0037215     24.06043    4.7180481    1.5055785    6.2236266    4.6058104   0.11223771    44.455331       29.972    19.867399 
 2088000    1.0002569    24.146034    4.7147846    1.5003816    6.2151662    4.6053513   0.10943337    61.090432    33.314483    38.101448 
 2091000     1.001647    24.084563    4.7161838    1.5024668    6.2186506    4.6057669   0.11041684    53.066971    21.751678    42.956516 
 2094000     0.997825    24.072316    4.7153905    1.4967338    6.2121243    4.6059546   0.10943587    46.211025    27.546738    25.602595 
 2097000   0.99994451    24.134554    4.7195771     1.499913    6.2194901     4.607169   0.11240814    39.689654    14.316603    34.805289 
 2100000   0.99912559    24.079774     4.712862    1.4986847    6.2115466    4.6032343   0.10962764    50.970701    15.153017    49.132637 
 2103000   0.99947592    24.090801    4.7178768    1.4992102     6.217087    4.6069388   0.11093803    58.268971    26.575139    43.475773 
 2106000    1.0014361    24.110058    4.7167353    1.5021504    6.2188857    4.6063607   0.11037453    47.899447    35.776163    16.630024 
 2109000    1.0010829    24.140711     4.717845    1.5016206    6.2194656    4.6067683   0.11107671    51.647847    27.669384    32.892274 
 2112000    0.9991174    24.141446    4.7180153    1.4986724    6.2166877    4.6066489   0.11136641    38.131776    27.571814    14.485548 
 2115000    1.0013527    24.128945    4.7158451    1.5020254    6.2178704    4.6055258   0.11031923    30.712662    9.9793816     28.44072 
 2118000   0.99933155    24.146679    4.7158665    1.4989936    6.2148601    4.6053052   0.11056124    38.535565       2.3586     56.09626 
 2121000    1.0003112    24.146945    4.7139962    1.5004631    6.2144593    4.6054659   0.10853029    44.170251     6.935776    51.076109 
 2124000    1.0013152    24.068758    4.7126374    1.5019691    6.2146065    4.6048238   0.10781359    41.790926    15.299855    36.338925 
 2127000    1.0013223    24.111768    4.7157059    1.5019797    6.2176857    4.6052221   0.11048386    44.360564    20.984023    32.066593 
 2130000     1.001884    24.159594    4.7152081    1.5028223    6.2180304    4.6052054   0.11000272    43.561255    39.817937    5.1348685 
 2133000    1.0012111    24.093983    4.7163232     1.501813    6.2181362    4.6063331   0.10999016    36.245029    20.760158    21.241255 
 2136000    0.9994519    24.088002    4.7128403    1.4991741    6.2120144    4.6035994   0.10924088     61.43812    33.270126    38.639232 
 2139000   0.99985238    24.110755    4.7164336    1.4997748    6.2162084    4.6047366   0.11169696    40.422778    20.436123    27.416542 
 2142000    1.0031364    24.075481    4.7152417    1.5047009    6.2199426    4.6049747   0.11026705    33.582077    19.327644    19.553409 
 2145000     1.000392    24.118417    4.7144573    1.5005843    6.2150415    4.6051468   0.10931048    42.632969    24.265413    25.195556 
 2148000    1.0019675    24.106951    4.7159436    1.5029476    6.2188912    4.6057632   0.11018043    57.624087    27.086834    41.889245 
 2151000    1.0014828    24.161617    4.7180201    1.5022204    6.2202405    4.6057922   0.11222786    45.664468    27.282236    25.215688 
 2154000   0.99895088    24.073081     4.713964    1.4984226    6.2123866     4.604101   0.10986306    58.466225    23.382239    48.126192 
 2157000    1.0002695    24.072686    4.7174147    1.5004005    6.2178151    4.6074131   0.11000158    57.551487    32.307041    34.628877 
 2160000    1.0002196    24.067161     4.714421    1.5003256    6.2147466    4.6056673   0.10875368    37.837933    22.346865    21.249754 
 2163000    1.0026978    24.171527    4.7177472    1.5040429    6.2217901    4.6079898   0.10975736    45.195525    23.265011    30.083016 
 2166000    1.0003102    24.097927    4.7192019    1.5004616    6.2196636      4.60781   0.11139195    58.693724     34.03242    33.828958 
 2169000    1.0017817    24.103522    4.7177719    1.5026688    6.2204406    4.6069195   0.11085236    78.308463    57.730412    28.227785 
 2172000     1.002282    24.169793    4.7176205    1.5034192    6.2210398    4.6052282   0.11239232    43.369509    18.423912    34.218933 
 2175000    1.0023451    24.181124    4.7185623     1.503514    6.2220763    4.6070707   0.11149167    59.935185     42.00591    24.594346 
 2178000   0.99866957     24.10124    4.7144711    1.4980006    6.2124717    4.6028336   0.11163744    47.971675    16.101331    43.717903 
 2181000   0.99978691    24.126246    4.7178145    1.4996767    6.2174911    4.6053041   0.11251031    80.091326    28.352353    70.972543 
 2184000    1.0010611    24.148861    4.7169876    1.5015879    6.2185755     4.605595   0.11139253    60.857084    24.429367    49.969444 
 2187000   0.99973345    24.116709    4.7204808    1.4995965    6.2200773    4.6087566    0.1117242    50.314662    37.956376    16.952384 
 2190000    1.0025111    24.055873    4.7175194     1.503763    6.2212824    4.6045207   0.11299866    49.354481    23.830809    35.011905 
 2193000    1.0001615    24.189502     4.716945    1.5002385    6.2171835    4.6069628   0.10998215    32.476199    25.301496    9.8418434 
 2196000    1.0000117    24.119716    4.7139774    1.5000139    6.2139913    4.6039901   0.10998735    52.346277    18.951769    45.808663 
 2199000    1.0013776    24.140803    4.7171443    1.5020627     6.219207    4.6067573   0.11038699    52.123755    43.740962    11.499033 
 2202000   0.99923641    24.092526    4.7171455    1.4988509    6.2159964    4.6056763   0.11146924    59.736284    21.495435    52.456595 
 2205000    1.0024064     24.12763    4.7174539    1.5036059    6.2210598    4.6069989   0.11045502    44.640532    1.4918995    63.281813 
 2208000   0.99917157    24.064855    4.7185916    1.4987536    6.2173453    4.6074777   0.11111393    52.225186    14.833083    51.292334 
 2211000    1.0010261    24.029336    4.7152851    1.5015354    6.2168206    4.6044379   0.11084727    34.596248    11.161665    32.146211 
 2214000    1.0009998    24.065847    4.7175622     1.501496    6.2190582    4.6074116    0.1101506    32.808787    7.4507116    34.784748 
 2217000    1.0000761    24.017399    4.7165947    1.5001104    6.2167051    4.6057268   0.11086788    49.823256    44.150892    7.7810226 
 2220000    1.0009192    24.130976    4.7144678    1.5013751    6.2158429    4.6057885   0.10867932    44.792059    15.329043    40.415669 
 2223000    1.0016437    24.066072     4.714638    1.5024619    6.2170998    4.6052701   0.10936786    68.425024    34.709261    46.249343 
 2226000   0.99963563    24.200574    4.7169408    1.4994497    6.2163905    4.6076077   0.10933306    58.927614     13.73065    61.998593 
 2229000    1.0026516    24.087627    4.7145978    1.5039737    6.2185715     4.604006   0.11059184    66.116653    34.188841    43.796735 
 2232000    1.0009066    24.025472    4.7184957    1.5013561    6.2198519    4.6076324   0.11086333    47.224583    27.255395    27.392583 
 2235000    1.0005066      24.0793    4.7183438    1.5007561       6.2191    4.6074977   0.11084608    54.172889    18.807181    48.512642 
 2238000   0.99957143    24.121928    4.7155032    1.4993534    6.2148566    4.6065376   0.10896564    69.845004    51.430678    25.259713 
 2241000     1.001178     24.06968    4.7141722    1.5017632    6.2159355    4.6044606   0.10971164     39.62144    13.376009     36.00197 
 2244000    1.0004895    24.084211    4.7174357    1.5007305    6.2181662    4.6053713   0.11206435    67.446337    51.299688    22.149042 
 2247000    1.0030514    24.087124     4.717621    1.5045733    6.2221943    4.6074568   0.11016423    40.750831    3.2481704    51.443991 
 2250000    1.0023853    24.113772    4.7151629    1.5035743    6.2187372    4.6053817   0.10978123    41.515134    11.489146     41.18792 
 2253000    1.0003714     24.10326    4.7172344    1.5005534    6.2177878    4.6038082   0.11342616    61.877533    19.162752    58.593677 
 2256000     1.000767    24.142709    4.7182843    1.5011468     6.219431    4.6080975   0.11018675    38.507722    20.657106    24.486447 
 2259000    1.0017794    24.107149     4.715609    1.5026654    6.2182744    4.6050569   0.11055213    34.237239    6.8538881    37.562904 
 2262000    1.0021638    24.086107    4.7173831     1.503242    6.2206251    4.6062865    0.1110966    54.109632     46.48919    10.453283 
 2265000    1.0018771    24.073338     4.716426    1.5028119    6.2192379    4.6055363    0.1108897    35.821789    27.509807    11.401898 
 2268000    1.0013666    24.006262    4.7179132    1.5020462    6.2199594    4.6063255   0.11158773    44.534932    21.686368    31.342344 
 2271000    1.0012546    24.084115    4.7153865    1.5018782    6.2172647    4.6052594   0.11012705    60.956946    34.994748    35.613449 
 2274000   0.99950775     24.12421    4.7168191    1.4992579    6.2160771    4.6054336   0.11138558    50.661374    19.138157    43.241733 
 2277000    1.0004157    24.088453    4.7153276    1.5006199    6.2159475    4.6059482   0.10937942    42.893239    38.621628     5.859551 
 2280000    1.0008588    24.096059     4.717684    1.5012844    6.2189684    4.6068944   0.11078955    73.865576    29.090245    61.420221 
 2283000    1.0016479    24.178967    4.7157261    1.5024682    6.2181943    4.6061686   0.10955753     49.43371    29.847957    26.866609 
 2286000    1.0027847    24.080976    4.7157535    1.5041734    6.2199268    4.6047719    0.1109816    38.603441    1.3495719    51.102712 
 2289000    1.0008026    24.119509     4.717917    1.5012002    6.2191172    4.6072647   0.11065235    50.256924    39.179175    15.195819 
 2292000    1.0018911    24.107568    4.7171576    1.5028329    6.2199904    4.6044436   0.11271402    57.784578    16.437159    56.718008 
 2295000    1.0014008    24.079666     4.717698    1.5020975    6.2197956    4.6063861    0.1113119    39.309844    36.486305    3.8731687 
 2298000    1.0011697    24.102654    4.7170261    1.5017508    6.2187769    4.6062315   0.11079458    37.634462    37.143121   0.67399294 
 2301000   0.99744274    24.138204    4.7145974    1.4961604    6.2107578    4.6051723   0.10942517     16.80627    12.763264    5.5459634 
 2304000    1.0018855    24.065187    4.7136442    1.5028245    6.2164688     4.605455   0.10818924    41.015875     17.36564     32.44203 
 2307000   0.99944363     24.03657    4.7159269    1.4991617    6.2150886    4.6063868   0.10954005    58.825933    31.128138    37.994241 
 2310000    1.0025803    24.164553    4.7151181    1.5038667    6.2189848    4.6051708   0.10994739    43.415204     21.54752    29.996829 
 2313000    1.0011163    24.189727    4.7180082    1.5016707    6.2196789    4.6064227   0.11158552    59.118925    32.218654    36.900241 
 2316000    1.0025963    24.124842    4.7163125    1.5038907    6.2202032    4.6048712   0.11144135    34.857036    34.875508  0.025338557 
 2319000   0.99955147    24.127578    4.7133865    1.4993235      6.21271    4.6052278   0.10815864    21.070014     28.96122    10.824701 
 2322000    1.0004497    24.047176    4.7172597    1.5006708    6.2179305    4.6070456   0.11021406    42.620219    30.268052    16.943991 
 2325000    1.0007116    24.109274    4.7179982    1.5010637    6.2190619    4.6059441   0.11205414    75.920181    43.575019    44.369231 
 2328000    1.0030822    24.045048    4.7168299    1.5046195    6.2214494    4.6054746   0.11135527    54.890082    19.192753    48.967541 
 2331000    1.0031926    24.137325    4.7184833    1.5047851    6.2232684    4.6063878    0.1120955    48.754682    26.446026    30.601729 
 2334000    1.0001325    24.085845    4.7143532    1.5001951    6.2145482    4.6043467   0.11000647     36.36707    19.518478    23.111928 
 2337000    1.0007636    24.035625    4.7168727    1.5011416    6.2180143    4.6053892   0.11148353    38.595348    11.188766    37.594771 
 2340000   0.99999511    24.143616     4.715436    1.4999889    6.2154249    4.6063309   0.10910508    47.116628    6.2772373    56.021125 
 2343000    1.0009888    24.074974    4.7180431    1.5014795    6.2195225    4.6059867   0.11205635    37.069221    9.7969375    37.410547 
 2346000    1.0004303    24.090127    4.7163421    1.5006417    6.2169838    4.6057449   0.11059717    66.526933    24.468515    57.693315 
 2349000    1.0014984    24.101748    4.7155312    1.5022439    6.2177752    4.6034308   0.11210045    61.652745    27.687096    46.592121 
 2352000    1.0016466    24.062647    4.7127154    1.5024662    6.2151817    4.6020582   0.11065728    40.876229    7.9183377    45.209737 
 2355000    1.0020427    24.148862    4.7132323    1.5030603    6.2162926    4.6037492   0.10948308    56.937556    28.263746    39.333082 
 2358000    1.0000096    24.123184    4.7160508    1.5000107    6.2160615    4.6053386   0.11071217    32.129371    8.6643124    32.188017 
 2361000    1.0009047    24.080919    4.7169314    1.5013533    6.2182847    4.6054504   0.11148103    47.735688    26.258424    29.461274 
 2364000    1.0009017    24.105684    4.7148939    1.5013488    6.2162427    4.6049312    0.1099627    59.108912    25.976528    45.449095 
 2367000    1.0026241    24.217655    4.7180284    1.5039325    6.2219609    4.6077009   0.11032747    37.410136     27.17452    14.040629 
 2370000    1.0006037    24.099027    4.7174826    1.5009019    6.2183845    4.6052062   0.11227646    77.055162    42.653016    47.190883 
 2373000    1.0000868    24.114071    4.7190858    1.5001265    6.2192123    4.6074683   0.11161749    38.698213    29.221608    12.999461 
 2376000    1.0011097    24.076287     4.715856    1.5016609    6.2175169    4.6063281   0.10952791    46.478552    26.238598    27.764004 
 2379000    1.0022149    24.078544    4.7160843    1.5033187     6.219403    4.6048086   0.11127571    47.293002    14.308802    45.245826 
 2382000    0.9996252    24.065574    4.7152874    1.4994341    6.2147215    4.6055077   0.10977972    43.116976    21.159213    30.120394 
 2385000    1.0005747    24.086355    4.7188053    1.5008584    6.2196637    4.6078512   0.11095408    31.194993    32.017758    1.1286224 
 2388000    1.0004932    24.163312    4.7167636    1.5007361    6.2174997    4.6078942   0.10886933    46.387886    9.8020565    50.186334 
 2391000    1.0004059     24.09526    4.7160412    1.5006052    6.2166464     4.606847   0.10919415    52.372718    24.093164    38.792263 
 2394000    1.0012264    24.072805    4.7163587    1.5018358    6.2181945    4.6055112    0.1108475    30.831477    19.920474    14.967085 
 2397000    1.0021059    24.123018    4.7166858    1.5031551    6.2198409    4.6059575   0.11072828    60.149339    23.275823    50.580966 
 2400000    1.0006348    24.085864    4.7157473    1.5009486    6.2166958    4.6049794   0.11076783    56.265013    24.816456    43.139319 
 2403000   0.99977795    24.082528    4.7147572    1.4996632    6.2144204    4.6044222   0.11033495    40.369725     25.88685    19.866774 
 2406000    1.0012515    24.180186    4.7153076    1.5018736    6.2171812    4.6036173   0.11169029    50.795667    14.949071    49.172296 
 2409000    1.0018298     24.08802    4.7177684    1.5027409    6.2205093    4.6081549   0.10961345    24.553361    21.992611    3.5126895 
 2412000    1.0009055    24.025654    4.7158226    1.5013545    6.2171771     4.605454   0.11036852     50.70664    17.895517     45.00841 
 2415000    1.0027838    24.051027    4.7159547    1.5041719    6.2201266    4.6061662    0.1097885    47.325387    15.652228    43.447415 
 2418000    1.0031963    24.181599    4.7160099    1.5047908    6.2208007     4.605601   0.11040892    74.115117    38.966027    48.215498 
 2421000    1.0014724    24.078131    4.7163966    1.5022048    6.2186014    4.6062887   0.11010797    24.399459    17.941364    8.8588427 
 2424000    1.0013976    24.148399    4.7167205    1.5020927    6.2188132    4.6046665   0.11205395    54.559112    28.494885    35.753407 
 2427000      1.00138    24.094227    4.7147931    1.5020662    6.2168593     4.604348   0.11044506    67.523593    30.307217    51.051282 
 2430000    1.0001242    24.117893    4.7176481    1.5001825    6.2178307    4.6073668   0.11028133    49.925523    23.849083    35.770158 
 2433000    1.0014254    24.102375    4.7166426    1.5021344     6.218777    4.6054178   0.11122478    45.062519    26.210271    25.860428 
 2436000    1.0006242    24.120568    4.7168226    1.5009325    6.2177551    4.6056196   0.11120301    42.471288     19.90029    30.961596 
 2439000     1.002268    24.050746    4.7134021    1.5033982    6.2168003      4.60246    0.1109421    52.671029     13.92395    53.151012 
 2442000    1.0021747    24.034144    4.7181728    1.5032584    6.2214312    4.6074683   0.11070452    38.916743    11.729831    37.293441 
 2445000    1.0022273    24.108968    4.7158925    1.5033373    6.2192298     4.605928   0.10996451    42.121797    32.012288    13.867642 
 2448000    1.0031698    24.118566    4.7167743     1.504751    6.2215253    4.6059261    0.1108482    48.591694    26.773214    29.929335 
 2451000   0.99840632    24.048821     4.714133    1.4976058    6.2117388    4.6044068   0.10972621    37.844963    32.009022    8.0054079 
 2454000    1.0000687    24.103705    4.7166498    1.5000993     6.216749    4.6055767   0.11107308    55.559085    13.414553    57.811442 
 2457000    1.0022003    24.106062    4.7161197    1.5032967    6.2194164    4.6059323    0.1101874    50.936011    15.459836    48.664175 
 2460000    1.0002303    24.155945    4.7141209    1.5003418    6.2144626    4.6046223   0.10949862    43.563718    19.774917    32.632106 
 2463000   0.99947781     24.12658    4.7154787     1.499213    6.2146917    4.6050254   0.11045333    44.703385    19.007319    35.248384 
 2466000    1.0019152    24.084277    4.7176802    1.5028691    6.2205493    4.6062072   0.11147299    40.905946    31.791309    12.502934 
 2469000     1.002143     24.13394    4.7192344    1.5032108    6.2224452     4.606296   0.11293842    60.661251    34.319733    36.133778 
 2472000   0.99917538    24.115852    4.7190638    1.4987594    6.2178232    4.6052472   0.11381657    46.519053    13.030876    45.937154 
 2475000     1.000693    24.035741    4.7174891    1.5010358    6.2185249    4.6063077   0.11118144    42.851219    29.689187    18.054918 
 2478000   0.99990361     23.99926    4.7151229    1.4998517    6.2149746    4.6058276    0.1092953    52.171449    17.189779     47.98584 
 2481000    1.0018894    24.122481     4.715488    1.5028303    6.2183183    4.6071595   0.10832853    32.897687    3.7538115    50.276415 
 2484000    1.0003361    24.031679    4.7169174    1.5005005    6.2174179    4.6051767   0.11174075     39.98383    25.127685    20.378804 
 2487000    1.0021763    24.078672     4.717162    1.5032607    6.2204227    4.6050746   0.11208743     36.99569     28.86219    11.157067 
 2490000    1.0021351    24.104761    4.7156576     1.503199    6.2188566    4.6069394   0.10871821    59.391238    25.966895    45.849589 
 2493000    1.0018875    24.075497    4.7174677    1.5028275    6.2202952    4.6065397     0.110928    70.159528    33.363545     50.47461 
 2496000    1.0006382     24.13518    4.7155503    1.5009536    6.2165039    4.6055705   0.10997978    31.805636     20.43369    15.599382 
 2499000    1.0006322    24.109524    4.7176013    1.5009446    6.2185459    4.6071742   0.11042702     40.80396        25.14    21.486919 
 2502000    1.0009115    24.203513    4.7160442    1.5013635    6.2174076    4.6068071   0.10923705    54.476916    39.999654    19.859074 
 2505000   0.99922413    24.114031    4.7147131    1.4988325    6.2135456    4.6051735   0.10953961    49.130496    16.837531     44.29763 
 2508000    1.0030457    24.076156    4.7178747    1.5045648    6.2224395    4.6052057   0.11266894    41.301043    28.258744    17.890675 
 2511000    1.0023855    24.132541     4.715623    1.5035746    6.2191976    4.6060433   0.10957964    47.573665    12.773401    47.736997 
 2514000    1.0025072     24.04684    4.7179682     1.503757    6.2217253    4.6072318   0.11073641    38.817935    2.1355336    50.318806 
 2517000   0.99931967    24.088576    4.7152559    1.4989758    6.2142317    4.6043311   0.11092478    48.926328     7.027224    57.474778 
 2520000    1.0010503    24.097204    4.7173094    1.5015718    6.2188811    4.6055577    0.1117517     32.91939    30.311047    3.5779744 
 2523000    1.0021717     24.21675    4.7150469    1.5032538    6.2183007    4.6049569   0.11009009    56.893055    30.285754    36.498363 
 2526000     0.999294    24.050735    4.7155062    1.4989373    6.2144435    4.6067452   0.10876104    43.873507     34.80944    12.433564 
 2529000     1.001565    24.153289    4.7155743    1.5023438    6.2179181    4.6043403   0.11123403    38.782803    13.628804    34.504808 
 2532000     1.000638    24.107257    4.7170112    1.5009533    6.2179644    4.6065075   0.11050371    48.816604    20.523182    38.811287 
 2535000    1.0002828    24.128496     4.718957    1.5004205    6.2193775    4.6082016   0.11075543    47.085307    32.097419    20.559522 
 2538000    1.0019981    24.131527    4.7174261    1.5029934    6.2204196     4.606827    0.1105991    47.070127    35.722134    15.566524 
 2541000    1.0013126    24.073981    4.7137761    1.5019651    6.2157412    4.6048806   0.10889549    55.210128    24.018655    42.786666 
 2544000    1.0007518    24.122563    4.7155466    1.5011239    6.2166706    4.6054816   0.11006503    46.111566    9.0544426    50.832827 
 2547000    1.0012077    24.154975    4.7168539    1.5018079    6.2186618     4.607326   0.10952785    30.701648     11.65535    26.126614 
 2550000    1.0022206    24.107286    4.7178315    1.5033272    6.2211587    4.6076106   0.11022091     31.29859    8.3944457    31.418586 
 2553000    1.0016261    24.086149    4.7177465    1.5024355     6.220182    4.6065253   0.11122128     42.13043    26.778543    21.058835 
 2556000    1.0014831    24.084053    4.7173852    1.5022209    6.2196061    4.6074972     0.109888    38.608984    23.517667    20.701399 
 2559000    1.0028128    24.136416    4.7191969    1.5042154    6.2234123    4.6088678   0.11032906    37.567804    2.8954268     47.56157 
 2562000    1.0013051    24.100712    4.7126297    1.5019539    6.2145836    4.6033435   0.10928621    45.834489    43.353411    3.4033996 
 2565000   0.99959137    24.137172    4.7130071    1.4993833    6.2123904    4.6040089   0.10899824    42.418153    5.1641051    51.102957 
 2568000   0.99969263    24.067771     4.717538    1.4995352    6.2170733    4.6063387   0.11119936    45.609857    43.486974    2.9120483 
 2571000    1.0001802    24.174141    4.7124125    1.5002666    6.2126791    4.6040641   0.10834838    43.810148    26.070431    24.334322 
 2574000    1.0019305     24.06077    4.7146492    1.5028921    6.2175412    4.6036629   0.11098627    25.524818    3.4160801    30.327494 
 2577000   0.99920506    24.097828    4.7156507    1.4988039    6.2144546    4.6056885   0.10996221    56.236085    36.896011    26.529601 
 2580000    1.0017308    24.068434    4.7160245    1.5025925     6.218617    4.6075329   0.10849162    33.619038    11.172337    30.791092 
 2583000    1.0012025    24.135166    4.7155032    1.5018001    6.2173033    4.6054509   0.11005233    42.361408    29.592013    17.516321 
 2586000    1.0003808    24.151296    4.7166602    1.5005675    6.2172276    4.6051695   0.11149071    38.490902    5.1099385    45.790084 
 2589000    1.0009609    24.095652     4.718121    1.5014377    6.2195587    4.6074752   0.11064584    52.047149    17.858213    46.898412 
 2592000    1.0004094    24.058349    4.7156786    1.5006104     6.216289    4.6061518   0.10952685    46.039296    40.349863    7.8044374 
 2595000     1.001729    24.081989    4.7150198    1.5025898    6.2176096    4.6057964   0.10922339    63.371314    28.053815    48.446511 
 2598000    1.0024427    24.120666    4.7197141    1.5036604    6.2233745    4.6072787   0.11243544    48.224444    28.440539    27.138422 
 2601000   0.99841351    24.144243    4.7117244    1.4976166     6.209341    4.6024916   0.10923284    46.966531    32.510551    19.829882 
 2604000    1.0029669    24.065275    4.7153786    1.5044467    6.2198252    4.6061258   0.10925272    59.538798    21.280894     52.47999 
 2607000    1.0017022    24.113003    4.7176102    1.5025496    6.2201598     4.607268   0.11034222    44.764395     15.27939    40.445833 
 2610000    1.0009081    24.109153    4.7163477    1.5013585    6.2177062    4.6067586   0.10958915    45.743511    19.943109    35.391506 
 2613000    1.0012135    24.059877    4.7152988    1.5018165    6.2171153    4.6043509   0.11094794    17.611646    12.950647    6.3936898 
 2616000    1.0025269    24.053075    4.7136898    1.5037866    6.2174764    4.6044422   0.10924765    42.921526    14.685819    38.732118 
 2619000   0.99997872    24.129634    4.7150557    1.4999644    6.2150201    4.6041865   0.11086919    17.744802    7.3068765    14.318145 
 2622000    1.0004796    24.158536     4.714586    1.5007156    6.2153017    4.6045948    0.1099912     26.28637    12.899803    18.362922 
 2625000   0.99865907      24.0506    4.7183252    1.4979849    6.2163101    4.6075167    0.1108085    49.219903    28.325858    28.661248 
 2628000    1.0030955     24.06861    4.7150151    1.5046396    6.2196547    4.6059014   0.10911373    56.041657    34.773435    29.174522 
 2631000    1.0002477    24.093955    4.7181451    1.5003678    6.2185129    4.6070183   0.11112679    36.469377    4.0685375    55.607577 
 2634000   0.99954377    24.101643    4.7166912    1.4993119    6.2160032    4.6056873    0.1110039    19.432216    2.5089586    30.097639 
 2637000   0.99960206    24.034154    4.7176894    1.4993994    6.2170888    4.6067442   0.11094521    24.440771    17.951877    8.9010906 
 2640000    1.0011778    24.123333    4.7153137     1.501763    6.2170767    4.6051796   0.11013414    43.463509    24.080852    26.588012 
 2643000    1.0000046    24.104272    4.7170554    1.5000032    6.2170585    4.6069831   0.11007227    51.918381    31.712995    27.716585 
 2646000    1.0013001    24.091352    4.7159294    1.5019464    6.2178759     4.606643   0.10928642    42.418962    8.9192215    45.953014 
 2649000    1.0029472    24.055624    4.7186119    1.5044171     6.223029    4.6063713   0.11224059    32.240656    4.4140543     50.28082 
 2652000    1.0007124    24.098533    4.7167659    1.5010648    6.2178307    4.6064264   0.11033944     56.45535    31.062075    34.833033 
 2655000    1.0008398    24.081138    4.7110055    1.5012559    6.2122615    4.6036006    0.1074049    47.905588    23.172302    33.927698 
 2658000    1.0015686    24.167348    4.7149904    1.5023492    6.2173396    4.6036986   0.11129184    41.844639    18.103309     32.56699 
 2661000   0.99822068    24.123989    4.7173283    1.4973273    6.2146556    4.6075165   0.10981183    60.137387    20.558805     54.29162 
 2664000    1.0016598    24.167456    4.7167738     1.502486    6.2192598     4.605443   0.11133077    45.381193    21.865304    32.257743 
 2667000    1.0005972    24.103564    4.7177866     1.500892    6.2186786    4.6077706     0.110016    48.981165    11.085936    51.982492 
 2670000    1.0012393    24.123819     4.718164    1.5018552    6.2200192    4.6064873    0.1116767    35.491623    20.541841     20.50725 
 2673000   0.99899034    24.131045    4.7171574    1.4984818    6.2156392    4.6047375   0.11241986    61.680587    24.189156    51.428586 
 2676000    1.0021261    24.087539    4.7176868    1.5031855    6.2208723    4.6057968   0.11189004    60.572808    24.948187    48.867803 
 2679000    1.0005908    24.012834    4.7154518    1.5008826    6.2163343    4.6054593   0.10999251    40.778613    25.246828    21.305608 
 2682000   0.99969935    24.009958     4.713434    1.4995453    6.2129793    4.6041437   0.10929036    56.127818    31.842204    33.313606 
 2685000   0.99942564    24.087321    4.7169921    1.4991347    6.2161269    4.6064402   0.11055193    63.279123    28.170748    48.159648 
 2688000   0.99931975    24.123276    4.7201621    1.4989759     6.219138     4.608369   0.11179304      35.3692      17.3673     24.69397 
 2691000    1.0000881    24.131648    4.7172984    1.5001285    6.2174269     4.606451   0.11084745    16.571265  0.056420334    22.654113 
 2694000   0.99939859    24.077189    4.7190025    1.4990942    6.2180966    4.6076057   0.11139675    41.996714    32.488877    13.042302 
 2697000     1.001487    24.138226    4.7174815    1.5022267    6.2197083    4.6056374    0.1118441    44.909258    42.645117    3.1058186 
 2700000    1.0010118     24.12425    4.7182166     1.501514    6.2197306    4.6062027   0.11201392    36.515702    9.3821536    37.220239 
 2703000   0.99973256    24.102917    4.7184685    1.4995951    6.2180636    4.6075731   0.11089535    58.893591    16.584095    58.037731 
 2706000    1.0017357    24.105839    4.7161406    1.5025998    6.2187405     4.605123   0.11101764    64.385166    28.760104    48.868409 
 2709000    1.0003868    24.089268    4.7147044    1.5005765    6.2152808    4.6042839   0.11042051    57.647521    31.877799     35.34942 
 2712000    1.0009995    24.168648    4.7188919    1.5014955    6.2203874    4.6074805    0.1114114    64.686909    23.688827    56.238807 
 2715000    1.0011682    24.139761    4.7168263    1.5017485    6.2185748    4.6057626   0.11106372    39.049884    9.8229242     40.09186 
 2718000   0.99998655    24.115242    4.7187758    1.4999761    6.2187519    4.6076165   0.11115933    39.323241    25.592182    18.835476 
 2721000   0.99832044    24.132608    4.7116122     1.497477    6.2090892       4.6019   0.10971222    50.735771    39.252006    15.752768 
 2724000   0.99979216    24.125569    4.7157719    1.4996845    6.2154564    4.6058491   0.10992278     57.77372    18.595589    53.742303 
 2727000    1.0011168    24.039229    4.7158699    1.5016715    6.2175414    4.6053833    0.1104866    45.637124    18.223652    37.604223 
 2730000    1.0032604    24.090804     4.716538    1.5048869    6.2214249    4.6052703    0.1112677     60.85558    23.729597    50.927286 
 2733000     1.000573    24.063555    4.7213682    1.5008558     6.222224    4.6090726   0.11229565    74.022367    27.708442    63.530775 
 2736000   0.99935114    24.042597    4.7169829     1.499023    6.2160059    4.6058149   0.11116802    51.424203    28.317686    31.696191 
 2739000   0.99945304    24.102374    4.7161893    1.4991759    6.2153652    4.6062504   0.10993899    41.363728    13.514162     38.20243 
 2742000    1.0008565    24.155803    4.7158386     1.501281    6.2171196    4.6049419   0.11089666    60.495725    31.200518    40.185477 
 2745000    1.0011271    24.052503    4.7157443    1.5016869    6.2174312    4.6065914   0.10915293     45.10294    22.909635    30.443496 
 2748000     1.001209    24.169004    4.7165852    1.5018098     6.218395    4.6063662     0.110219    37.264436    32.016002    7.1995004 
 2751000    1.0012199     24.17381     4.718288    1.5018261    6.2201141    4.6061923   0.11209565    48.888881    38.178444     14.69196 
 2754000    1.0007659    24.108998    4.7176771    1.5011452    6.2188223    4.6069766    0.1107005    23.402115    1.4606427    34.105299 
 2757000   0.99859558    24.073333     4.716134    1.4978897    6.2140236    4.6058273   0.11030671     45.68456    30.619447    20.665454 
 2760000   0.99933207    24.086559    4.7148865    1.4989944    6.2138809    4.6042189   0.11066763    64.080182    25.596821    52.789259 
 2763000   0.99880228     24.05302      4.71507    1.4981997    6.2132697    4.6052152   0.10985485    44.183645    30.246118    19.118697 
 2766000    1.0003434    24.109676    4.7186707    1.5005114    6.2191821    4.6081705   0.11050028    25.181825   0.34239812    34.073295 
 2769000   0.99881156    24.121486    4.7170084    1.4982136     6.215222    4.6056068   0.11140164    53.822479    41.605215    16.758939 
 2772000    1.0006986    24.109326    4.7159883    1.5010442    6.2170325    4.6055907   0.11039759    44.515925    18.616139    35.527835 
 2775000    1.0007396    24.039185     4.716609    1.5011056    6.2177146    4.6059854   0.11062367    40.556815    8.8921678    43.435739 
 2778000    1.0002444    24.161099    4.7154782    1.5003629    6.2158411     4.604483   0.11099528    51.254708    13.192799    52.211135 
 2781000    1.0016517    24.076365    4.7167545    1.5024738    6.2192283    4.6062401   0.11051447    51.237708    36.453554    20.280051 
 2784000    1.0016574    24.148907    4.7187329    1.5024824    6.2212153     4.608527   0.11020585     33.79888    21.553708    16.797222 
 2787000    1.0001471    24.202616    4.7147505     1.500217    6.2149675     4.604978   0.10977244    36.308734    16.617836    27.010839 
 2790000    1.0020535    24.102046    4.7163976    1.5030765    6.2194741    4.6049422   0.11145538    60.902127    25.480593    48.589219 
 2793000   0.99920881    23.958676    4.7173184    1.4988095    6.2161279    4.6053617   0.11195677    52.146371     20.62568    43.238269 
 2796000    1.0019473    24.122706    4.7174173    1.5029172    6.2203345    4.6050549   0.11236244    38.655003    21.292323    23.817125 
 2799000    1.0022273     24.10708      4.71759    1.5033373    6.2209273    4.6048712   0.11271885    46.674552    34.269629    17.016359 
 2802000   0.99963265    24.069989     4.717819    1.4994453    6.2172643     4.606889   0.11093006    31.389886    2.1889554    40.056155 
 2805000      1.00164     24.13542    4.7162853    1.5024563    6.2187416    4.6053009   0.11098446    68.489114    29.229442    53.854157 
 2808000    1.0021189    24.119755    4.7133737    1.5031747    6.2165484    4.6034904    0.1098833    33.292229    22.135563    15.304072 
 2811000    1.0010764    24.116199    4.7141637    1.5016109    6.2157746    4.6057042    0.1084595    52.466239    46.637989    7.9948574 
 2814000   0.99942769    24.132887    4.7175428    1.4991378    6.2166806    4.6062445   0.11129825    41.645791    18.377379    31.918268 
 2817000    1.0020537    24.142357    4.7175631    1.5030769    6.2206399    4.6071279    0.1104352    34.351486    15.407219    25.986654 
 2820000   0.99990454    24.122452    4.7171238    1.4998531    6.2169769    4.6054676   0.11165616    52.440413     54.79789    3.2338513 
 2823000   0.99932802    24.169909    4.7177063    1.4989883    6.2166946    4.6068018   0.11090445    46.702224    13.904205    44.990434 
 2826000    1.0011624    24.039723    4.7179191    1.5017399    6.2196591    4.6077511   0.11016806    46.382605    32.716492    18.746387 
 2829000    1.0015637    24.154546    4.7205881    1.5023419      6.22293    4.6093872    0.1112009    35.623451    3.9879536    43.395753 
 2832000    1.0022911    24.125381    4.7172697    1.5034329    6.2207026    4.6060593   0.11121041     32.06373     10.26061    29.908264 
 2835000    1.0022476    24.068549    4.7149445    1.5033677    6.2183122    4.6046985   0.11024598    37.283986    14.908226    30.693779 
 2838000   0.99774456    24.118793    4.7171109    1.4966131     6.213724    4.6048306   0.11228027    58.712089    18.020512    55.818363 
 2841000    1.0024871    24.061976     4.717095     1.503727     6.220822    4.6065716   0.11052335    43.329799    38.847091    6.1491214 
 2844000   0.99894043    24.007407    4.7163763    1.4984069    6.2147832    4.6061296    0.1102467    37.119484    16.447209    28.357036 
 2847000   0.99964677    24.112166    4.7178712    1.4994664    6.2173376    4.6056992   0.11217197    33.026622    12.540743    28.101349 
 2850000    1.0013547    24.103285    4.7147623    1.5020283    6.2167906    4.6056832   0.10907909    44.326212    39.646636    6.4191721 
 2853000    1.0019331    24.081218    4.7159352     1.502896    6.2188312    4.6059833   0.10995189     31.84855    31.497963   0.48091442 
 2856000     1.000249    24.126442    4.7184048    1.5003698    6.2187746    4.6065005   0.11190424    43.427905    30.254952    18.069898 
 2859000    1.0015956    24.103608    4.7159514    1.5023897    6.2183411    4.6060484   0.10990302    30.153183    24.538389    7.7020504 
 2862000    1.0033176    24.123309    4.7153549    1.5049726    6.2203275    4.6037315   0.11162338    58.931571    5.2520728    73.634444 
 2865000    1.0009671    24.126539    4.7177585    1.5014469    6.2192053    4.6066377   0.11112074     54.68455    32.216716    30.820081 
 2868000    1.0019966    24.159263    4.7158935    1.5029912    6.2188847    4.6059267   0.10996682    37.331152   0.50463722    51.900957 
 2871000   0.99989859    24.040158    4.7161714    1.4998442    6.2160155    4.6069109   0.10926052     33.48132    11.323005      30.3955 
 2874000    1.0000515    24.074174     4.714073    1.5000735    6.2141465    4.6046328   0.10944018    39.738038    17.763692    30.143143 
 2877000    1.0019866    24.085711    4.7143282    1.5029762    6.2173045    4.6051753   0.10915295     52.71957    31.174015    29.554951 
 2880000   0.99934743    24.048679    4.7183006    1.4990174     6.217318      4.60651   0.11179061    43.208377    31.881856    15.537069 
 2883000   0.99900718    24.103574    4.7128291    1.4985071    6.2113362    4.6034977   0.10933141    65.274765    28.393703    50.591317 
 2886000    1.0038352    24.089032    4.7156846     1.505749    6.2214336    4.6072231    0.1084615    63.980884    33.096716    42.365123 
 2889000     1.004897    24.087844    4.7157535    1.5073417    6.2230952     4.604217   0.11153644    54.770928    5.2962102    67.866568 
 2892000   0.99985487    24.054418    4.7166836    1.4997786    6.2164622    4.6050312   0.11165245    39.054672    26.701982    16.944709 
 2895000    1.0006026    24.126966    4.7164225    1.5009001    6.2173226    4.6054176    0.1110049    53.274584    44.438308    12.121094 
 2898000    1.0006275    24.036256    4.7174311    1.5009376    6.2183687    4.6061252   0.11130587     43.15983    26.356533    23.049796 
 2901000    1.0013821    24.113686     4.717821    1.5020694    6.2198905    4.6059863   0.11183473    43.410574    19.017007    33.461691 
 2904000   0.99995077     24.05343    4.7130633    1.4999224    6.2129857    4.6036086   0.10945467    54.882641    39.578455    20.993402 
 2907000   0.99615203    24.069166    4.7127721    1.4942243    6.2069964    4.6050294   0.10774267    24.756126    3.2287837    29.529969 
 2910000   0.99900332    24.188588    4.7153051    1.4985013    6.2138063    4.6060919   0.10921316    55.736974    16.480714    53.849477 
 2913000   0.99944722    24.152282    4.7157208    1.4991671    6.2148879    4.6056202   0.11010064    42.933361    17.184299    35.321081 
 2916000    1.0018629    24.096309    4.7167091    1.5027906    6.2194997    4.6067038   0.11000532    57.100518    41.350092    21.605526 
 2919000     1.000846    24.146198    4.7191217    1.5012652    6.2203869    4.6082185   0.11090325    24.856206    10.399266    19.831199 
 2922000    1.0016907    24.142057    4.7183969    1.5025324    6.2209293    4.6065232   0.11187364    54.609554    26.911629    37.994417 
 2925000     1.000874    24.153596    4.7158197    1.5013074    6.2171271    4.6053281   0.11049156     7.687582    6.2683868    1.9467702 
 2928000    1.0018081    24.077461    4.7157342    1.5027084    6.2184426    4.6056206   0.11011364    34.721236    20.903198    18.954789 
 2931000    1.0016012    24.089196    4.7178778     1.502398    6.2202758    4.6066879    0.1111899     46.82386    22.581312    33.254531 
 2934000    1.0012655    24.078792    4.7134483    1.5018946    6.2153429    4.6031423   0.11030601    44.650787    12.513974    44.083429 
 2937000    1.0014895    24.098962    4.7204531    1.5022306    6.2226837    4.6103133   0.11013981    46.217043    29.944907     22.32118 
 2940000    1.0012953    24.113458    4.7184704    1.5019392    6.2204096     4.608742   0.10972843    41.224145    12.793574     38.99942 
 2943000    1.0032843    24.096315    4.7160768    1.5049227    6.2209995     4.606435   0.10964174    68.292611    45.570657    31.168668 
 2946000    1.0012796    24.073306    4.7170614    1.5019157    6.2189772    4.6057524   0.11130904     49.75861    33.704195    22.022521 
 2949000    1.0032161    24.126542    4.7145648    1.5048204    6.2193852    4.6045178   0.11004704    40.035294     30.01075    13.751092 
 2952000    1.0002507    24.039815    4.7180579    1.5003723    6.2184302    4.6070451   0.11101275    49.756792    6.0597673    59.941061 
 2955000    1.0007231    24.135899    4.7172416    1.5010809    6.2183225     4.605049   0.11219257    37.888087    8.2297585    40.683587 
 2958000     1.000972    24.062003    4.7164951    1.5014543    6.2179495    4.6064523   0.11004283    54.916306    19.245427    48.931257 
 2961000    1.0009564    24.091649    4.7172532    1.5014309    6.2186842    4.6050809   0.11217237    41.544707    46.610052    6.9483482 
 2964000    1.0000122    24.111271    4.7153744    1.5000146     6.215389    4.6065787   0.10879565    50.575125    31.091509    26.726503 
 2967000    1.0020335    24.055128    4.7137683    1.5030465    6.2168147    4.6043712   0.10939706    47.330769    36.602753    14.716075 
 2970000    1.0005738    24.133887    4.7142891    1.5008569     6.215146    4.6039125   0.11037659    28.447765     6.895624    29.563986 
 2973000    1.0015674    24.071083    4.7196637    1.5023473     6.222011     4.607185   0.11247869    45.454575    25.485961    27.391795 
 2976000   0.99982324    24.090646    4.7170973    1.4997311    6.2168285     4.607307   0.10979032     34.44691    19.000509    21.188483 
 2979000    1.0007911     24.05097    4.7190974    1.5011829    6.2202804    4.6093203   0.10977715    42.162366     22.73052    26.655487 
 2982000   0.99993249    24.066906    4.7162337     1.499895    6.2161287     4.605433   0.11080071    61.274702    32.052452      40.0854 
 2985000   0.99856281    24.156738    4.7186375    1.4978405     6.216478    4.6076475   0.11099004    30.949657     12.94601    24.696367 
 2988000   0.99876206    24.140535    4.7175875    1.4981394    6.2157269    4.6077231   0.10986445    62.878434    36.156946    36.654997 
 2991000   0.99961829    24.083485    4.7169229    1.4994237    6.2163466    4.6068858   0.11003702    47.984111    7.8998518    54.985278 
 2994000    1.0030406    24.142932    4.7150456    1.5045572    6.2196028    4.6052911    0.1097545    46.673364    26.140159    28.166268 
 2997000    1.0024413    24.101086    4.7168082    1.5036582    6.2204663     4.606545   0.11026321    62.793889    48.594598     19.47777 
 3000000   0.99779482    24.019019    4.7164448    1.4966885    6.2131334    4.6064025   0.11004237    36.312259    11.797262    33.628261 
Loop time of 143475 on 24 procs for 3000000 steps with 403744 atoms

Performance: 3613.172 tau/day, 20.910 timesteps/s
98.4% CPU use with 24 MPI tasks x no OpenMP threads

MPI task timing breakdown:
Section |  min time  |  avg time  |  max time  |%varavg| %total
---------------------------------------------------------------
Pair    | 93128      | 96150      | 99771      | 582.8 | 67.02
Bond    | 3847.1     | 5037.3     | 5627.5     | 739.3 |  3.51
Neigh   | 3526.9     | 3528.5     | 3529.8     |   1.4 |  2.46
Comm    | 6074.3     | 9577.2     | 13745      |2221.9 |  6.68
Output  | 0.18145    | 0.18289    | 0.20891    |   1.3 |  0.00
Modify  | 27136      | 27262      | 27394      |  46.7 | 19.00
Other   |            | 1920       |            |       |  1.34

Nlocal:    16822.7 ave 16907 max 16746 min
Histogram: 1 1 6 2 3 5 1 3 1 1
Nghost:    23919.1 ave 23984 max 23821 min
Histogram: 2 1 0 2 2 2 7 3 0 5
Neighs:    2.85194e+06 ave 2.88897e+06 max 2.80884e+06 min
Histogram: 1 2 6 1 2 1 2 3 2 4

Total # of neighbors = 68446591
Ave neighs/atom = 169.53
Ave special neighs/atom = 0.0834588
Neighbor list builds = 30297
Dangerous builds = 0

clear
next T
next concentracao
next index_simu
jump input_lammps.inp
Total wall time: 52:33:05
